 vasp.6.1.2 22Jul20 (build Mar 11 2021 17:42:27) complex

 executed on             LinuxIFC date 2021.03.11  18:16:22

 INCAR:
 POTCAR:    PAW_PBE Si 05Jan2001
 POTCAR:    PAW_PBE Si 05Jan2001
   VRHFIN =Si: s2p2

   TITEL  = PAW_PBE Si 05Jan2001
   POMASS =   28.085; ZVAL   =    4.000    mass and valenz
   ENMAX  =  245.345; ENMIN  =  184.009 eV

  PAW_PBE Si 05Jan2001                  :

 POSCAR: Unknown
  positions in direct lattice

 METAGGA = R2SCA    LMAXTAU =  6    LMIXTAU =  T

 ion  position               nearest neighbor table
   1  0.875  0.875  0.875-   2 2.35   2 2.35   2 2.35   2 2.35
   2  0.125  0.125  0.125-   1 2.35   1 2.35   1 2.35   1 2.35

  LATTYP: Found a face centered cubic cell.
 ALAT       =     5.4201310054

  Lattice vectors:

 A1 = (   0.0000000000,   2.7100655027,   2.7100655027)
 A2 = (   2.7100655027,   0.0000000000,   2.7100655027)
 A3 = (   2.7100655027,   2.7100655027,   0.0000000000)

Analysis of symmetry for initial positions (statically):
 Subroutine PRICEL returns:
 Original cell was already a primitive cell.

 Routine SETGRP: Setting up the symmetry group for a
 face centered cubic supercell.

 Subroutine GETGRP returns: Found 48 space group operations
 (whereof 12 operations were pure point group operations)
 out of a pool of 48 trial point group operations.

The static configuration has the point symmetry D_3d.
 The point group associated with its full space group is O_h .

Analysis of symmetry for dynamics (positions and initial velocities):
 Subroutine PRICEL returns:
 Original cell was already a primitive cell.

 Routine SETGRP: Setting up the symmetry group for a
 face centered cubic supercell.

 Subroutine GETGRP returns: Found 48 space group operations
 (whereof 12 operations were pure point group operations)
 out of a pool of 48 trial point group operations.

The dynamic configuration has the point symmetry D_3d.
 The point group associated with its full space group is O_h .

 Subroutine INISYM returns: Found 48 space group operations
 (whereof 12 operations are pure point group operations),
 and found     1 'primitive' translations

                                     Primitive cell

  volume of cell :      39.8079

  direct lattice vectors                    reciprocal lattice vectors
     0.000000000  2.710065503  2.710065503    -0.184497386  0.184497386  0.184497386
     2.710065503  0.000000000  2.710065503     0.184497386 -0.184497386  0.184497386
     2.710065503  2.710065503  0.000000000     0.184497386  0.184497386 -0.184497386

  length of vectors
     3.832611389  3.832611389  3.832611389     0.319558846  0.319558846  0.319558846

  position of ions in fractional coordinates (direct lattice)
     0.875000000  0.875000000  0.875000000
     0.125000000  0.125000000  0.125000000

  ion indices of the primitive-cell ions
   primitive index   ion index
                 1           1
                 2           2

Automatic generation of k-mesh.
 generate k-points for:   26   26   26
Space group operators:
 irot       det(A)        alpha          n_x          n_y          n_z        tau_x        tau_y        tau_z
    1     1.000000     0.000001     1.000000     0.000000     0.000000     0.000000     0.000000     0.000000
    2    -1.000000     0.000001     1.000000     0.000000     0.000000     0.000000     0.000000     0.000000
    3     1.000000   120.000000    -0.577350    -0.577350    -0.577350     0.000000     0.000000     0.000000
    4    -1.000000   120.000000    -0.577350    -0.577350    -0.577350     0.000000     0.000000     0.000000
    5     1.000000   120.000000     0.577350     0.577350     0.577350     0.000000     0.000000     0.000000
    6    -1.000000   120.000000     0.577350     0.577350     0.577350     0.000000     0.000000     0.000000
    7     1.000000   180.000000     0.000000    -0.707107     0.707107     0.000000     0.000000     0.000000
    8    -1.000000   180.000000     0.000000    -0.707107     0.707107     0.000000     0.000000     0.000000
    9     1.000000   180.000000     0.707107    -0.707107     0.000000     0.000000     0.000000     0.000000
   10    -1.000000   180.000000     0.707107    -0.707107     0.000000     0.000000     0.000000     0.000000
   11     1.000000   180.000000     0.707107     0.000000    -0.707107     0.000000     0.000000     0.000000
   12    -1.000000   180.000000     0.707107     0.000000    -0.707107     0.000000     0.000000     0.000000
   13     1.000000    90.000000     0.000000     0.000000    -1.000000    -0.500000     0.000000     0.000000
   14    -1.000000    90.000000     0.000000     0.000000    -1.000000    -0.500000     0.000000     0.000000
   15     1.000000   180.000000     0.000000     0.707107     0.707107    -0.500000     0.000000     0.000000
   16    -1.000000   180.000000     0.000000     0.707107     0.707107    -0.500000     0.000000     0.000000
   17     1.000000    90.000000     0.000000     1.000000     0.000000    -0.500000     0.000000     0.000000
   18    -1.000000    90.000000     0.000000     1.000000     0.000000    -0.500000     0.000000     0.000000
   19     1.000000   180.000000     0.000000     0.000000     1.000000     0.000000     0.000000    -0.500000
   20    -1.000000   180.000000     0.000000     0.000000     1.000000     0.000000     0.000000    -0.500000
   21     1.000000   120.000000    -0.577350     0.577350     0.577350     0.000000     0.000000    -0.500000
   22    -1.000000   120.000000    -0.577350     0.577350     0.577350     0.000000     0.000000    -0.500000
   23     1.000000   120.000000    -0.577350     0.577350    -0.577350     0.000000     0.000000    -0.500000
   24    -1.000000   120.000000    -0.577350     0.577350    -0.577350     0.000000     0.000000    -0.500000
   25     1.000000    90.000000     0.000000     0.000000     1.000000     0.000000    -0.500000     0.000000
   26    -1.000000    90.000000     0.000000     0.000000     1.000000     0.000000    -0.500000     0.000000
   27     1.000000    90.000000    -1.000000     0.000000     0.000000     0.000000    -0.500000     0.000000
   28    -1.000000    90.000000    -1.000000     0.000000     0.000000     0.000000    -0.500000     0.000000
   29     1.000000   180.000000     0.707107     0.000000     0.707107     0.000000    -0.500000     0.000000
   30    -1.000000   180.000000     0.707107     0.000000     0.707107     0.000000    -0.500000     0.000000
   31     1.000000   120.000000     0.577350    -0.577350     0.577350    -0.500000     0.000000     0.000000
   32    -1.000000   120.000000     0.577350    -0.577350     0.577350    -0.500000     0.000000     0.000000
   33     1.000000   120.000000    -0.577350    -0.577350     0.577350    -0.500000     0.000000     0.000000
   34    -1.000000   120.000000    -0.577350    -0.577350     0.577350    -0.500000     0.000000     0.000000
   35     1.000000   180.000000     1.000000     0.000000     0.000000    -0.500000     0.000000     0.000000
   36    -1.000000   180.000000     1.000000     0.000000     0.000000    -0.500000     0.000000     0.000000
   37     1.000000    90.000000     0.000000    -1.000000     0.000000     0.000000     0.000000    -0.500000
   38    -1.000000    90.000000     0.000000    -1.000000     0.000000     0.000000     0.000000    -0.500000
   39     1.000000   180.000000     0.707107     0.707107     0.000000     0.000000     0.000000    -0.500000
   40    -1.000000   180.000000     0.707107     0.707107     0.000000     0.000000     0.000000    -0.500000
   41     1.000000    90.000000     1.000000     0.000000     0.000000     0.000000     0.000000    -0.500000
   42    -1.000000    90.000000     1.000000     0.000000     0.000000     0.000000     0.000000    -0.500000
   43     1.000000   120.000000     0.577350    -0.577350    -0.577350     0.000000    -0.500000     0.000000
   44    -1.000000   120.000000     0.577350    -0.577350    -0.577350     0.000000    -0.500000     0.000000
   45     1.000000   180.000000     0.000000     1.000000     0.000000     0.000000    -0.500000     0.000000
   46    -1.000000   180.000000     0.000000     1.000000     0.000000     0.000000    -0.500000     0.000000
   47     1.000000   120.000000     0.577350     0.577350    -0.577350     0.000000    -0.500000     0.000000
   48    -1.000000   120.000000     0.577350     0.577350    -0.577350     0.000000    -0.500000     0.000000
 TETIRR: Found   2360 inequivalent tetrahedra from   105456

 Subroutine IBZKPT returns following result:

 Found    511 irreducible k-points:

 Following reciprocal coordinates:
            Coordinates               Weight
  0.000000  0.000000  0.000000      1.000000
  0.038462  0.000000  0.000000      8.000000
  0.076923  0.000000  0.000000      8.000000
  0.115385  0.000000  0.000000      8.000000
  0.153846  0.000000  0.000000      8.000000
  0.192308  0.000000  0.000000      8.000000
  0.230769  0.000000  0.000000      8.000000
  0.269231  0.000000  0.000000      8.000000
  0.307692  0.000000  0.000000      8.000000
  0.346154  0.000000  0.000000      8.000000
  0.384615  0.000000  0.000000      8.000000
  0.423077  0.000000  0.000000      8.000000
  0.461538  0.000000  0.000000      8.000000
  0.500000  0.000000  0.000000      4.000000
  0.038462  0.038462  0.000000      6.000000
  0.076923  0.038462  0.000000     24.000000
  0.115385  0.038462  0.000000     24.000000
  0.153846  0.038462  0.000000     24.000000
  0.192308  0.038462  0.000000     24.000000
  0.230769  0.038462  0.000000     24.000000
  0.269231  0.038462  0.000000     24.000000
  0.307692  0.038462  0.000000     24.000000
  0.346154  0.038462  0.000000     24.000000
  0.384615  0.038462  0.000000     24.000000
  0.423077  0.038462  0.000000     24.000000
  0.461538  0.038462  0.000000     24.000000
  0.500000  0.038462  0.000000     24.000000
 -0.461538  0.038462  0.000000     24.000000
 -0.423077  0.038462  0.000000     24.000000
 -0.384615  0.038462  0.000000     24.000000
 -0.346154  0.038462  0.000000     24.000000
 -0.307692  0.038462  0.000000     24.000000
 -0.269231  0.038462  0.000000     24.000000
 -0.230769  0.038462  0.000000     24.000000
 -0.192308  0.038462  0.000000     24.000000
 -0.153846  0.038462  0.000000     24.000000
 -0.115385  0.038462  0.000000     24.000000
 -0.076923  0.038462  0.000000     24.000000
 -0.038462  0.038462  0.000000     12.000000
  0.076923  0.076923  0.000000      6.000000
  0.115385  0.076923  0.000000     24.000000
  0.153846  0.076923  0.000000     24.000000
  0.192308  0.076923  0.000000     24.000000
  0.230769  0.076923  0.000000     24.000000
  0.269231  0.076923  0.000000     24.000000
  0.307692  0.076923  0.000000     24.000000
  0.346154  0.076923  0.000000     24.000000
  0.384615  0.076923  0.000000     24.000000
  0.423077  0.076923  0.000000     24.000000
  0.461538  0.076923  0.000000     24.000000
  0.500000  0.076923  0.000000     24.000000
 -0.461538  0.076923  0.000000     24.000000
 -0.423077  0.076923  0.000000     24.000000
 -0.384615  0.076923  0.000000     24.000000
 -0.346154  0.076923  0.000000     24.000000
 -0.307692  0.076923  0.000000     24.000000
 -0.269231  0.076923  0.000000     24.000000
[...]
   0.34615385  0.00000000  0.00000000       0.000
   0.38461538  0.00000000  0.00000000       0.000
   0.42307692  0.00000000  0.00000000       0.000
   0.46153846  0.00000000  0.00000000       0.000
   0.50000000  0.00000000  0.00000000       0.000
   0.03846154  0.03846154  0.00000000       0.000
   0.07692308  0.03846154  0.00000000       0.001
   0.11538462  0.03846154  0.00000000       0.001
   0.15384615  0.03846154  0.00000000       0.001
   0.19230769  0.03846154  0.00000000       0.001
   0.23076923  0.03846154  0.00000000       0.001
   0.26923077  0.03846154  0.00000000       0.001
   0.30769231  0.03846154  0.00000000       0.001
   0.34615385  0.03846154  0.00000000       0.001
   0.38461538  0.03846154  0.00000000       0.001
   0.42307692  0.03846154  0.00000000       0.001
   0.46153846  0.03846154  0.00000000       0.001
   0.50000000  0.03846154  0.00000000       0.001
  -0.46153846  0.03846154  0.00000000       0.001
  -0.42307692  0.03846154  0.00000000       0.001
  -0.38461538  0.03846154  0.00000000       0.001
  -0.34615385  0.03846154  0.00000000       0.001
  -0.30769231  0.03846154  0.00000000       0.001
  -0.26923077  0.03846154  0.00000000       0.001
  -0.23076923  0.03846154  0.00000000       0.001
  -0.19230769  0.03846154  0.00000000       0.001
  -0.15384615  0.03846154  0.00000000       0.001
  -0.11538462  0.03846154  0.00000000       0.001
  -0.07692308  0.03846154  0.00000000       0.001
  -0.03846154  0.03846154  0.00000000       0.001
   0.07692308  0.07692308  0.00000000       0.000
   0.11538462  0.07692308  0.00000000       0.001
   0.15384615  0.07692308  0.00000000       0.001
   0.19230769  0.07692308  0.00000000       0.001
   0.23076923  0.07692308  0.00000000       0.001
   0.26923077  0.07692308  0.00000000       0.001
   0.30769231  0.07692308  0.00000000       0.001
   0.34615385  0.07692308  0.00000000       0.001
   0.38461538  0.07692308  0.00000000       0.001
   0.42307692  0.07692308  0.00000000       0.001
   0.46153846  0.07692308  0.00000000       0.001
   0.50000000  0.07692308  0.00000000       0.001
  -0.46153846  0.07692308  0.00000000       0.001
  -0.42307692  0.07692308  0.00000000       0.001
  -0.38461538  0.07692308  0.00000000       0.001
  -0.34615385  0.07692308  0.00000000       0.001
  -0.30769231  0.07692308  0.00000000       0.001
  -0.26923077  0.07692308  0.00000000       0.001
  -0.23076923  0.07692308  0.00000000       0.001
  -0.19230769  0.07692308  0.00000000       0.001
  -0.15384615  0.07692308  0.00000000       0.001
[...]
  -0.38461538  0.38461538  0.19230769       0.003
  -0.34615385  0.38461538  0.19230769       0.003
  -0.30769231  0.38461538  0.19230769       0.001
  -0.38461538  0.42307692  0.19230769       0.001
  -0.34615385  0.42307692  0.19230769       0.003
  -0.30769231  0.42307692  0.19230769       0.003
  -0.26923077  0.42307692  0.19230769       0.003
  -0.23076923  0.42307692  0.19230769       0.001
  -0.34615385  0.46153846  0.19230769       0.001
  -0.30769231  0.46153846  0.19230769       0.003
  -0.26923077  0.46153846  0.19230769       0.001
  -0.30769231  0.50000000  0.19230769       0.001
  -0.30769231  0.46153846  0.23076923       0.001
  -0.26923077  0.46153846  0.23076923       0.001
  -0.26923077  0.50000000  0.23076923       0.001

 position of ions in fractional coordinates (direct lattice)
   0.87500000  0.87500000  0.87500000
   0.12500000  0.12500000  0.12500000

 position of ions in cartesian coordinates  (Angst):
   4.74261463  4.74261463  4.74261463
   0.67751638  0.67751638  0.67751638

 k-point   1 :   0.0000 0.0000 0.0000  plane waves:    2085
 k-point   2 :   0.0385 0.0000 0.0000  plane waves:    2073
 k-point   3 :   0.0769 0.0000 0.0000  plane waves:    2055
 k-point   4 :   0.1154 0.0000 0.0000  plane waves:    2043
 k-point   5 :   0.1538 0.0000 0.0000  plane waves:    2046
 k-point   6 :   0.1923 0.0000 0.0000  plane waves:    2028
 k-point   7 :   0.2308 0.0000 0.0000  plane waves:    2042
 k-point   8 :   0.2692 0.0000 0.0000  plane waves:    2033
 k-point   9 :   0.3077 0.0000 0.0000  plane waves:    2030
 k-point  10 :   0.3462 0.0000 0.0000  plane waves:    2030
 k-point  11 :   0.3846 0.0000 0.0000  plane waves:    2045
 k-point  12 :   0.4231 0.0000 0.0000  plane waves:    2054
 k-point  13 :   0.4615 0.0000 0.0000  plane waves:    2048
 k-point  14 :   0.5000 0.0000 0.0000  plane waves:    2036
 k-point  15 :   0.0385 0.0385 0.0000  plane waves:    2069
 k-point  16 :   0.0769 0.0385 0.0000  plane waves:    2055
 k-point  17 :   0.1154 0.0385 0.0000  plane waves:    2048
 k-point  18 :   0.1538 0.0385 0.0000  plane waves:    2038
 k-point  19 :   0.1923 0.0385 0.0000  plane waves:    2041
 k-point  20 :   0.2308 0.0385 0.0000  plane waves:    2042
 k-point  21 :   0.2692 0.0385 0.0000  plane waves:    2043
 k-point  22 :   0.3077 0.0385 0.0000  plane waves:    2037
 k-point  23 :   0.3462 0.0385 0.0000  plane waves:    2030
 k-point  24 :   0.3846 0.0385 0.0000  plane waves:    2042
 k-point  25 :   0.4231 0.0385 0.0000  plane waves:    2049
 k-point  26 :   0.4615 0.0385 0.0000  plane waves:    2046
 k-point  27 :   0.5000 0.0385 0.0000  plane waves:    2043
 k-point  28 :  -0.4615 0.0385 0.0000  plane waves:    2042
 k-point  29 :  -0.4231 0.0385 0.0000  plane waves:    2047
 k-point  30 :  -0.3846 0.0385 0.0000  plane waves:    2044
 k-point  31 :  -0.3462 0.0385 0.0000  plane waves:    2038
 k-point  32 :  -0.3077 0.0385 0.0000  plane waves:    2033
 k-point  33 :  -0.2692 0.0385 0.0000  plane waves:    2040
 k-point  34 :  -0.2308 0.0385 0.0000  plane waves:    2046
 k-point  35 :  -0.1923 0.0385 0.0000  plane waves:    2043
 k-point  36 :  -0.1538 0.0385 0.0000  plane waves:    2035
 k-point  37 :  -0.1154 0.0385 0.0000  plane waves:    2041
 k-point  38 :  -0.0769 0.0385 0.0000  plane waves:    2053
 k-point  39 :  -0.0385 0.0385 0.0000  plane waves:    2065
 k-point  40 :   0.0769 0.0769 0.0000  plane waves:    2045
 k-point  41 :   0.1154 0.0769 0.0000  plane waves:    2043
 k-point  42 :   0.1538 0.0769 0.0000  plane waves:    2039
 k-point  43 :   0.1923 0.0769 0.0000  plane waves:    2037
 k-point  44 :   0.2308 0.0769 0.0000  plane waves:    2046
 k-point  45 :   0.2692 0.0769 0.0000  plane waves:    2040
 k-point  46 :   0.3077 0.0769 0.0000  plane waves:    2039
 k-point  47 :   0.3462 0.0769 0.0000  plane waves:    2036
 k-point  48 :   0.3846 0.0769 0.0000  plane waves:    2040
 k-point  49 :   0.4231 0.0769 0.0000  plane waves:    2054
 k-point  50 :   0.4615 0.0769 0.0000  plane waves:    2039
 k-point  51 :   0.5000 0.0769 0.0000  plane waves:    2045
 k-point  52 :  -0.4615 0.0769 0.0000  plane waves:    2039
 k-point  53 :  -0.4231 0.0769 0.0000  plane waves:    2045
 k-point  54 :  -0.3846 0.0769 0.0000  plane waves:    2050
 k-point  55 :  -0.3462 0.0769 0.0000  plane waves:    2039
 k-point  56 :  -0.3077 0.0769 0.0000  plane waves:    2041
 k-point  57 :  -0.2692 0.0769 0.0000  plane waves:    2042
 k-point  58 :  -0.2308 0.0769 0.0000  plane waves:    2043
 k-point  59 :  -0.1923 0.0769 0.0000  plane waves:    2046
 k-point  60 :  -0.1538 0.0769 0.0000  plane waves:    2038
[...]
 k-point 497 :  -0.3846 0.3846 0.1923  plane waves:    2049
 k-point 498 :  -0.3462 0.3846 0.1923  plane waves:    2051
 k-point 499 :  -0.3077 0.3846 0.1923  plane waves:    2054
 k-point 500 :  -0.3846 0.4231 0.1923  plane waves:    2053
 k-point 501 :  -0.3462 0.4231 0.1923  plane waves:    2050
 k-point 502 :  -0.3077 0.4231 0.1923  plane waves:    2051
 k-point 503 :  -0.2692 0.4231 0.1923  plane waves:    2046
 k-point 504 :  -0.2308 0.4231 0.1923  plane waves:    2047
 k-point 505 :  -0.3462 0.4615 0.1923  plane waves:    2047
 k-point 506 :  -0.3077 0.4615 0.1923  plane waves:    2054
 k-point 507 :  -0.2692 0.4615 0.1923  plane waves:    2043
 k-point 508 :  -0.3077 0.5000 0.1923  plane waves:    2048
 k-point 509 :  -0.3077 0.4615 0.2308  plane waves:    2051
 k-point 510 :  -0.2692 0.4615 0.2308  plane waves:    2044
 k-point 511 :  -0.2692 0.5000 0.2308  plane waves:    2048

 maximum and minimum number of plane-waves per node :       217      195

 maximum number of plane-waves:      2085
 maximum index in each direction:
   IXMAX=    9   IYMAX=    8   IZMAX=    8
   IXMIN=   -9   IYMIN=   -9   IZMIN=   -9

 parallel 3D FFT for wavefunctions:
    minimum data exchange during FFTs selected (reduces bandwidth)
 parallel 3D FFT for charge:
    minimum data exchange during FFTs selected (reduces bandwidth)

 Broyden mixing: mesh for mixing (old mesh)
   NGX = 17   NGY = 17   NGZ = 17
  (NGX  = 72   NGY  = 72   NGZ  = 72)
  gives a total of   4913 points

 initial charge density was supplied:
 charge density of overlapping atoms calculated
 number of electron       8.0000000 magnetization
 keeping initial charge density in first step

 Maximum index for augmentation-charges        18596 (set IRDMAX)

 First call to EWALD:  gamma=   0.519
 Maximum number of real-space cells 3x 3x 3
 Maximum number of reciprocal cells 3x 3x 3

--------------------------------------- Iteration      1(   1)  ---------------------------------------

 BZINTS: Fermi energy:   10.870570;    8.000000 electrons
         Band energy: 0.211185E+02;  BLOECHL correction:   -0.200823

 eigenvalue-minimisations  :  8176
 total energy-change (2. order) : 0.2766318E+01  (-0.4278751E+03)
 number of electron       8.0000000 magnetization
 augmentation part        8.0000000 magnetization

 Free energy of the ion-electron system (eV)
  alpha Z        PSCENC =         3.38255710
  Ewald energy   TEWEN  =      -228.97969424
  -Hartree energ DENC   =       -10.91933376
  -exchange      EXHF   =         0.00000000
  -V(xc)+E(xc)   XCENC  =        -9.80051687
  PAW double counting   =       166.52371732     -144.69237092
  entropy T*S    EENTRO =         0.00000000
  eigenvalues    EBANDS =        21.11853677
  atomic energy  EATOM  =       206.13342277
  Solvation  Ediel_sol  =         0.00000000
  free energy    TOTEN  =         2.76631817 eV

  energy without entropy =        2.76631817  energy(sigma->0) =        2.76631817

[...]

 BZINTS: Fermi energy:    6.048229;    8.000000 electrons
         Band energy:-0.712757E-01;  BLOECHL correction:   -0.000000

 eigenvalue-minimisations  : 12072
 total energy-change (2. order) :-0.2118981E+02  (-0.2094119E+02)
 number of electron       8.0000000 magnetization
 augmentation part        8.0000000 magnetization

[...]

 BZINTS: Fermi energy:    5.136588;    8.000000 electrons
         Band energy:-0.363702E+00;  BLOECHL correction:    0.000000

[...]

 Broyden mixing:
  rms(total) = 0.60874E+00    rms(broyden)= 0.70124E+02
  rms(prec ) = 0.12211E+01
  weight for this iteration     100.00
  WARNING: grid for Broyden might be to small

[...]

 eigenvalues of (default mixing * dielectric matrix)
  average eigenvalue GAMMA=   0.6250
  0.6250

[...]

 eigenvalue-minimisations  :  5784
 total energy-change (2. order) : 0.1220808E-06  (-0.1968806E-08)
 number of electron       8.0000000 magnetization
 augmentation part       -0.4353413 magnetization

 Broyden mixing:
  rms(total) = 0.24124E-04    rms(broyden)= 0.35295E-02
  rms(prec ) = 0.48194E-04
  weight for this iteration     100.00
  WARNING: grid for Broyden might be to small

 eigenvalues of (default mixing * dielectric matrix)
  average eigenvalue GAMMA=   1.2660
  2.6759  2.4652  1.7440  1.0021  0.8193  0.7576  0.6258  0.6451  0.6594

[...]

--------------------------------------- Iteration      1(  15)  ---------------------------------------

[...]

 eigenvalue-minimisations  :  5192
 total energy-change (2. order) :-0.1545254E-07  (-0.1046316E-09)
 number of electron       8.0000000 magnetization
 augmentation part       -0.4353413 magnetization

 Free energy of the ion-electron system (eV)
  alpha Z        PSCENC =         3.38255710
  Ewald energy   TEWEN  =      -228.97969424
  -Hartree energ DENC   =       -14.88798967
  -exchange      EXHF   =         0.00000000
  -V(xc)+E(xc)   XCENC  =        -8.74292577
  PAW double counting   =      1534.73609291    -1513.10723655
  entropy T*S    EENTRO =         0.00000000
  eigenvalues    EBANDS =         3.91695493
  atomic energy  EATOM  =       206.13342277
  Solvation  Ediel_sol  =         0.00000000
  free energy    TOTEN  =       -17.54881852 eV

  energy without entropy =      -17.54881852  energy(sigma->0) =      -17.54881852

 average (electrostatic) potential at core
  the test charge radii are     0.9892
  (the norm of the test charge is              1.0000)
       1 -86.1075       2 -86.1075

 E-fermi :   5.7976     XC(G=0):  -9.8787     alpha+bet :-12.0501

 k-point     1 :       0.0000    0.0000    0.0000
  band No.  band energies     occupation
      1      -6.7708      2.00000
      2       5.7972      2.00000
      3       5.7972      2.00000
      4       5.7972      2.00000
      5       8.5583      0.00000
      6       8.5583      0.00000
      7       8.5583      0.00000
      8       9.8589      0.00000

[...]

 k-point   511 :      -0.2692    0.5000    0.2308
  band No.  band energies     occupation
      1      -2.2088      2.00000
      2      -2.2088      2.00000
      3       1.7587      2.00000
      4       1.7587      2.00000
      5      10.1840      0.00000
      6      10.1840      0.00000
      7      11.4767      0.00000
      8      11.4767      0.00000

 soft charge-density along one line, spin component           1
         0         1         2         3         4         5         6         7         8         9
 total charge-density along one line

------------------------ aborting loop because EDIFF is reached ----------------------------------------

 total charge

# of ion       s       p       d       tot
    1        0.745   0.969   0.000   1.715
    2        0.745   0.969   0.000   1.715
tot          1.491   1.939   0.000   3.430

  FORCE on cell =-STRESS in cart. coord.  units (eV):
  Direction    XX          YY          ZZ          XY          YZ          ZX
  Alpha Z     3.38256     3.38256     3.38256
  Ewald     -76.32660   -76.32660   -76.32660     0.00000     0.00000     0.00000
  Hartree     4.96265     4.96265     4.96265     0.00000     0.00000     0.00000
  E(xc)     -24.46063   -24.62310   -24.55072     0.10335    -0.00518     0.04340
  Local     -28.86080   -28.86080   -28.86080     0.00000     0.00000     0.00000
  n-local    76.42203    77.99815    72.33640     2.23350    -1.31830     0.52639
  augment   -10.59527   -10.59527   -10.59527    -0.00000    -0.00000    -0.00000
  Kinetic    58.89694    55.95752    55.13992     3.49720    -0.74385     1.10022
  Fock        0.00000     0.00000     0.00000     0.00000     0.00000     0.00000
  Total       0.26804     0.26804     0.26804    -0.00000    -0.00000    -0.00000
  in kB      10.78785    10.78785    10.78785    -0.00000    -0.00000    -0.00000

 VOLUME and BASIS-vectors are now :
  energy-cutoff  :      800.00
  volume of cell :       39.81
      direct lattice vectors                 reciprocal lattice vectors
     0.000000000  2.710065503  2.710065503    -0.184497386  0.184497386  0.184497386
     2.710065503  0.000000000  2.710065503     0.184497386 -0.184497386  0.184497386
     2.710065503  2.710065503  0.000000000     0.184497386  0.184497386 -0.184497386

  length of vectors
     3.832611389  3.832611389  3.832611389     0.319558846  0.319558846  0.319558846

 FORCES acting on ions
    electron-ion (+dipol)            ewald-force                    non-local-force                 convergence-correction
   0.195E-07 0.195E-07 0.169E-07   -.803E-14 -.109E-13 -.114E-13   -.118E-15 -.149E-15 -.128E-15   -.498E-10 -.498E-10 -.498E-10
   -.195E-07 -.195E-07 -.169E-07   0.800E-14 0.113E-13 0.113E-13   0.833E-16 0.191E-15 0.212E-15   0.498E-10 0.498E-10 0.498E-10
   -.621E-13 0.144E-12 0.101E-12   -.343E-16 0.327E-15 -.855E-16   -.347E-16 0.416E-16 0.833E-16   -.230E-14 -.217E-14 -.306E-14

 POSITION                                       TOTAL-FORCE (eV/Angst)
      4.74261      4.74261      4.74261         0.000000     -0.000000      0.000000
      0.67752      0.67752      0.67752        -0.000000      0.000000     -0.000000
    total drift:                               -0.000000      0.000000      0.000000

  FREE ENERGIE OF THE ION-ELECTRON SYSTEM (eV)
  free  energy   TOTEN  =       -17.54881852 eV

  energy  without entropy=      -17.54881852  energy(sigma->0) =      -17.54881852

 total charge

# of ion       s       p       d       tot
    1        0.745   0.969   0.000   1.715
    2        0.745   0.969   0.000   1.715
tot          1.491   1.939   0.000   3.430

 BZINTS: Fermi energy:    5.797553;    8.000000 electrons
         Band energy: 0.391695E+01;  BLOECHL correction:    0.000000