 vasp.6.1.2 22Jul20 (build Mar 11 2021 17:42:27) complex

 executed on             LinuxIFC date 2021.03.11  17:57:10

 INCAR:
 POTCAR:    PAW_PBE Si 05Jan2001
 POTCAR:    PAW_PBE Si 05Jan2001
   VRHFIN =Si: s2p2

   TITEL  = PAW_PBE Si 05Jan2001
   POMASS =   28.085; ZVAL   =    4.000    mass and valenz
   ENMAX  =  245.345; ENMIN  =  184.009 eV

  PAW_PBE Si 05Jan2001                  :

 POSCAR: Unknown
  positions in direct lattice

 METAGGA = R2SCA    LMAXTAU =  6    LMIXTAU =  T

 ion  position               nearest neighbor table
   1  0.875  0.875  0.875-   2 2.52   2 2.52   2 2.52   2 2.52
   2  0.125  0.125  0.125-   1 2.52   1 2.52   1 2.52   1 2.52

  LATTYP: Found a face centered cubic cell.
 ALAT       =     5.8300000000

  Lattice vectors:

 A1 = (   0.0000000000,   2.9150000000,   2.9150000000)
 A2 = (   2.9150000000,   0.0000000000,   2.9150000000)
 A3 = (   2.9150000000,   2.9150000000,   0.0000000000)

Analysis of symmetry for initial positions (statically):
 Subroutine PRICEL returns:
 Original cell was already a primitive cell.

 Routine SETGRP: Setting up the symmetry group for a
 face centered cubic supercell.

 Subroutine GETGRP returns: Found 48 space group operations
 (whereof 12 operations were pure point group operations)
 out of a pool of 48 trial point group operations.

The static configuration has the point symmetry D_3d.
 The point group associated with its full space group is O_h .

Analysis of symmetry for dynamics (positions and initial velocities):
 Subroutine PRICEL returns:
 Original cell was already a primitive cell.

 Routine SETGRP: Setting up the symmetry group for a
 face centered cubic supercell.

 Subroutine GETGRP returns: Found 48 space group operations
 (whereof 12 operations were pure point group operations)
 out of a pool of 48 trial point group operations.

The dynamic configuration has the point symmetry D_3d.
 The point group associated with its full space group is O_h .

 Subroutine INISYM returns: Found 48 space group operations
 (whereof 12 operations are pure point group operations),
 and found     1 'primitive' translations

                                     Primitive cell

  volume of cell :      49.5388

  direct lattice vectors                    reciprocal lattice vectors
     0.000000000  2.915000000  2.915000000    -0.171526587  0.171526587  0.171526587
     2.915000000  0.000000000  2.915000000     0.171526587 -0.171526587  0.171526587
     2.915000000  2.915000000  0.000000000     0.171526587  0.171526587 -0.171526587

  length of vectors
     4.122432534  4.122432534  4.122432534     0.297092763  0.297092763  0.297092763

  position of ions in fractional coordinates (direct lattice)
     0.875000000  0.875000000  0.875000000
     0.125000000  0.125000000  0.125000000

  ion indices of the primitive-cell ions
   primitive index   ion index
                 1           1
                 2           2

Automatic generation of k-mesh.
 generate k-points for:   24   24   24
Space group operators:
 irot       det(A)        alpha          n_x          n_y          n_z        tau_x        tau_y        tau_z
    1     1.000000     0.000000     1.000000     0.000000     0.000000     0.000000     0.000000     0.000000
    2    -1.000000     0.000000     1.000000     0.000000     0.000000     0.000000     0.000000     0.000000
    3     1.000000   120.000000    -0.577350    -0.577350    -0.577350     0.000000     0.000000     0.000000
    4    -1.000000   120.000000    -0.577350    -0.577350    -0.577350     0.000000     0.000000     0.000000
    5     1.000000   120.000000     0.577350     0.577350     0.577350     0.000000     0.000000     0.000000
    6    -1.000000   120.000000     0.577350     0.577350     0.577350     0.000000     0.000000     0.000000
    7     1.000000   180.000000     0.000000    -0.707107     0.707107     0.000000     0.000000     0.000000
    8    -1.000000   180.000000     0.000000    -0.707107     0.707107     0.000000     0.000000     0.000000
    9     1.000000   180.000000     0.707107    -0.707107     0.000000     0.000000     0.000000     0.000000
   10    -1.000000   180.000000     0.707107    -0.707107     0.000000     0.000000     0.000000     0.000000
   11     1.000000   180.000000     0.707107     0.000000    -0.707107     0.000000     0.000000     0.000000
   12    -1.000000   180.000000     0.707107     0.000000    -0.707107     0.000000     0.000000     0.000000
   13     1.000000    90.000000     0.000000     0.000000    -1.000000    -0.500000     0.000000     0.000000
   14    -1.000000    90.000000     0.000000     0.000000    -1.000000    -0.500000     0.000000     0.000000
   15     1.000000   180.000000     0.000000     0.707107     0.707107    -0.500000     0.000000     0.000000
   16    -1.000000   180.000000     0.000000     0.707107     0.707107    -0.500000     0.000000     0.000000
   17     1.000000    90.000000     0.000000     1.000000     0.000000    -0.500000     0.000000     0.000000
   18    -1.000000    90.000000     0.000000     1.000000     0.000000    -0.500000     0.000000     0.000000
   19     1.000000   180.000000     0.000000     0.000000     1.000000     0.000000     0.000000    -0.500000
   20    -1.000000   180.000000     0.000000     0.000000     1.000000     0.000000     0.000000    -0.500000
   21     1.000000   120.000000    -0.577350     0.577350     0.577350     0.000000     0.000000    -0.500000
   22    -1.000000   120.000000    -0.577350     0.577350     0.577350     0.000000     0.000000    -0.500000
   23     1.000000   120.000000    -0.577350     0.577350    -0.577350     0.000000     0.000000    -0.500000
   24    -1.000000   120.000000    -0.577350     0.577350    -0.577350     0.000000     0.000000    -0.500000
   25     1.000000    90.000000     0.000000     0.000000     1.000000     0.000000    -0.500000     0.000000
   26    -1.000000    90.000000     0.000000     0.000000     1.000000     0.000000    -0.500000     0.000000
   27     1.000000    90.000000    -1.000000     0.000000     0.000000     0.000000    -0.500000     0.000000
   28    -1.000000    90.000000    -1.000000     0.000000     0.000000     0.000000    -0.500000     0.000000
   29     1.000000   180.000000     0.707107     0.000000     0.707107     0.000000    -0.500000     0.000000
   30    -1.000000   180.000000     0.707107     0.000000     0.707107     0.000000    -0.500000     0.000000
   31     1.000000   120.000000     0.577350    -0.577350     0.577350    -0.500000     0.000000     0.000000
   32    -1.000000   120.000000     0.577350    -0.577350     0.577350    -0.500000     0.000000     0.000000
   33     1.000000   120.000000    -0.577350    -0.577350     0.577350    -0.500000     0.000000     0.000000
   34    -1.000000   120.000000    -0.577350    -0.577350     0.577350    -0.500000     0.000000     0.000000
   35     1.000000   180.000000     1.000000     0.000000     0.000000    -0.500000     0.000000     0.000000
   36    -1.000000   180.000000     1.000000     0.000000     0.000000    -0.500000     0.000000     0.000000
   37     1.000000    90.000000     0.000000    -1.000000     0.000000     0.000000     0.000000    -0.500000
   38    -1.000000    90.000000     0.000000    -1.000000     0.000000     0.000000     0.000000    -0.500000
   39     1.000000   180.000000     0.707107     0.707107     0.000000     0.000000     0.000000    -0.500000
   40    -1.000000   180.000000     0.707107     0.707107     0.000000     0.000000     0.000000    -0.500000
   41     1.000000    90.000000     1.000000     0.000000     0.000000     0.000000     0.000000    -0.500000
   42    -1.000000    90.000000     1.000000     0.000000     0.000000     0.000000     0.000000    -0.500000
   43     1.000000   120.000000     0.577350    -0.577350    -0.577350     0.000000    -0.500000     0.000000
   44    -1.000000   120.000000     0.577350    -0.577350    -0.577350     0.000000    -0.500000     0.000000
   45     1.000000   180.000000     0.000000     1.000000     0.000000     0.000000    -0.500000     0.000000
   46    -1.000000   180.000000     0.000000     1.000000     0.000000     0.000000    -0.500000     0.000000
   47     1.000000   120.000000     0.577350     0.577350    -0.577350     0.000000    -0.500000     0.000000
   48    -1.000000   120.000000     0.577350     0.577350    -0.577350     0.000000    -0.500000     0.000000
 TETIRR: Found   1864 inequivalent tetrahedra from    82944

 Subroutine IBZKPT returns following result:

 Found    413 irreducible k-points:

 Following reciprocal coordinates:
            Coordinates               Weight
  0.000000  0.000000  0.000000      1.000000
  0.041667  0.000000  0.000000      8.000000
  0.083333  0.000000  0.000000      8.000000
  0.125000  0.000000  0.000000      8.000000
  0.166667  0.000000  0.000000      8.000000
  0.208333  0.000000  0.000000      8.000000
  0.250000  0.000000  0.000000      8.000000
  0.291667  0.000000  0.000000      8.000000
  0.333333  0.000000  0.000000      8.000000
  0.375000  0.000000  0.000000      8.000000
  0.416667  0.000000  0.000000      8.000000
  0.458333  0.000000  0.000000      8.000000
  0.500000  0.000000  0.000000      4.000000
  0.041667  0.041667  0.000000      6.000000
  0.083333  0.041667  0.000000     24.000000
  0.125000  0.041667  0.000000     24.000000
  0.166667  0.041667  0.000000     24.000000
  0.208333  0.041667  0.000000     24.000000
  0.250000  0.041667  0.000000     24.000000
  0.291667  0.041667  0.000000     24.000000
  0.333333  0.041667  0.000000     24.000000
  0.375000  0.041667  0.000000     24.000000
  0.416667  0.041667  0.000000     24.000000
  0.458333  0.041667  0.000000     24.000000
  0.500000  0.041667  0.000000     24.000000
 -0.458333  0.041667  0.000000     24.000000
 -0.416667  0.041667  0.000000     24.000000
 -0.375000  0.041667  0.000000     24.000000
 -0.333333  0.041667  0.000000     24.000000
 -0.291667  0.041667  0.000000     24.000000
 -0.250000  0.041667  0.000000     24.000000
 -0.208333  0.041667  0.000000     24.000000
 -0.166667  0.041667  0.000000     24.000000
 -0.125000  0.041667  0.000000     24.000000
 -0.083333  0.041667  0.000000     24.000000
 -0.041667  0.041667  0.000000     12.000000
  0.083333  0.083333  0.000000      6.000000
  0.125000  0.083333  0.000000     24.000000
  0.166667  0.083333  0.000000     24.000000
  0.208333  0.083333  0.000000     24.000000
  0.250000  0.083333  0.000000     24.000000
  0.291667  0.083333  0.000000     24.000000
  0.333333  0.083333  0.000000     24.000000
  0.375000  0.083333  0.000000     24.000000
  0.416667  0.083333  0.000000     24.000000
  0.458333  0.083333  0.000000     24.000000
  0.500000  0.083333  0.000000     24.000000
 -0.458333  0.083333  0.000000     24.000000
 -0.416667  0.083333  0.000000     24.000000
 -0.375000  0.083333  0.000000     24.000000
 -0.333333  0.083333  0.000000     24.000000
 -0.291667  0.083333  0.000000     24.000000
 -0.250000  0.083333  0.000000     24.000000
 -0.208333  0.083333  0.000000     24.000000
 -0.166667  0.083333  0.000000     24.000000
 -0.125000  0.083333  0.000000     24.000000
 -0.083333  0.083333  0.000000     12.000000
[...]
   0.25000000  0.00000000  0.00000000       0.001
   0.29166667  0.00000000  0.00000000       0.001
   0.33333333  0.00000000  0.00000000       0.001
   0.37500000  0.00000000  0.00000000       0.001
   0.41666667  0.00000000  0.00000000       0.001
   0.45833333  0.00000000  0.00000000       0.001
   0.50000000  0.00000000  0.00000000       0.000
   0.04166667  0.04166667  0.00000000       0.000
   0.08333333  0.04166667  0.00000000       0.002
   0.12500000  0.04166667  0.00000000       0.002
   0.16666667  0.04166667  0.00000000       0.002
   0.20833333  0.04166667  0.00000000       0.002
   0.25000000  0.04166667  0.00000000       0.002
   0.29166667  0.04166667  0.00000000       0.002
   0.33333333  0.04166667  0.00000000       0.002
   0.37500000  0.04166667  0.00000000       0.002
   0.41666667  0.04166667  0.00000000       0.002
   0.45833333  0.04166667  0.00000000       0.002
   0.50000000  0.04166667  0.00000000       0.002
  -0.45833333  0.04166667  0.00000000       0.002
  -0.41666667  0.04166667  0.00000000       0.002
  -0.37500000  0.04166667  0.00000000       0.002
  -0.33333333  0.04166667  0.00000000       0.002
  -0.29166667  0.04166667  0.00000000       0.002
  -0.25000000  0.04166667  0.00000000       0.002
  -0.20833333  0.04166667  0.00000000       0.002
  -0.16666667  0.04166667  0.00000000       0.002
  -0.12500000  0.04166667  0.00000000       0.002
  -0.08333333  0.04166667  0.00000000       0.002
  -0.04166667  0.04166667  0.00000000       0.001
   0.08333333  0.08333333  0.00000000       0.000
   0.12500000  0.08333333  0.00000000       0.002
   0.16666667  0.08333333  0.00000000       0.002
   0.20833333  0.08333333  0.00000000       0.002
   0.25000000  0.08333333  0.00000000       0.002
   0.29166667  0.08333333  0.00000000       0.002
   0.33333333  0.08333333  0.00000000       0.002
   0.37500000  0.08333333  0.00000000       0.002
   0.41666667  0.08333333  0.00000000       0.002
   0.45833333  0.08333333  0.00000000       0.002
   0.50000000  0.08333333  0.00000000       0.002
  -0.45833333  0.08333333  0.00000000       0.002
  -0.41666667  0.08333333  0.00000000       0.002
  -0.37500000  0.08333333  0.00000000       0.002
  -0.33333333  0.08333333  0.00000000       0.002
  -0.29166667  0.08333333  0.00000000       0.002
  -0.25000000  0.08333333  0.00000000       0.002
  -0.20833333  0.08333333  0.00000000       0.002
  -0.16666667  0.08333333  0.00000000       0.002
  -0.12500000  0.08333333  0.00000000       0.002
  -0.08333333  0.08333333  0.00000000       0.001
   0.12500000  0.12500000  0.00000000       0.000
   0.16666667  0.12500000  0.00000000       0.002
   0.20833333  0.12500000  0.00000000       0.002
[...]
  -0.33333333  0.41666667  0.16666667       0.003
  -0.29166667  0.41666667  0.16666667       0.003
  -0.25000000  0.41666667  0.16666667       0.002
  -0.37500000  0.45833333  0.16666667       0.002
  -0.33333333  0.45833333  0.16666667       0.003
  -0.29166667  0.45833333  0.16666667       0.002
  -0.33333333  0.50000000  0.16666667       0.001
  -0.37500000  0.41666667  0.20833333       0.002
  -0.33333333  0.41666667  0.20833333       0.003
  -0.29166667  0.41666667  0.20833333       0.002
  -0.33333333  0.45833333  0.20833333       0.002
  -0.29166667  0.45833333  0.20833333       0.003
  -0.25000000  0.45833333  0.20833333       0.002
  -0.29166667  0.50000000  0.20833333       0.001
  -0.25000000  0.50000000  0.25000000       0.000

 position of ions in fractional coordinates (direct lattice)
   0.87500000  0.87500000  0.87500000
   0.12500000  0.12500000  0.12500000

 position of ions in cartesian coordinates  (Angst):
   5.10125000  5.10125000  5.10125000
   0.72875000  0.72875000  0.72875000

 k-point   1 :   0.0000 0.0000 0.0000  plane waves:    2637
 k-point   2 :   0.0417 0.0000 0.0000  plane waves:    2616
 k-point   3 :   0.0833 0.0000 0.0000  plane waves:    2580
 k-point   4 :   0.1250 0.0000 0.0000  plane waves:    2565
 k-point   5 :   0.1667 0.0000 0.0000  plane waves:    2571
 k-point   6 :   0.2083 0.0000 0.0000  plane waves:    2553
 k-point   7 :   0.2500 0.0000 0.0000  plane waves:    2563
 k-point   8 :   0.2917 0.0000 0.0000  plane waves:    2551
 k-point   9 :   0.3333 0.0000 0.0000  plane waves:    2545
 k-point  10 :   0.3750 0.0000 0.0000  plane waves:    2542
 k-point  11 :   0.4167 0.0000 0.0000  plane waves:    2542
 k-point  12 :   0.4583 0.0000 0.0000  plane waves:    2524
 k-point  13 :   0.5000 0.0000 0.0000  plane waves:    2536
 k-point  14 :   0.0417 0.0417 0.0000  plane waves:    2597
 k-point  15 :   0.0833 0.0417 0.0000  plane waves:    2580
 k-point  16 :   0.1250 0.0417 0.0000  plane waves:    2573
 k-point  17 :   0.1667 0.0417 0.0000  plane waves:    2567
 k-point  18 :   0.2083 0.0417 0.0000  plane waves:    2562
 k-point  19 :   0.2500 0.0417 0.0000  plane waves:    2559
 k-point  20 :   0.2917 0.0417 0.0000  plane waves:    2548
 k-point  21 :   0.3333 0.0417 0.0000  plane waves:    2547
 k-point  22 :   0.3750 0.0417 0.0000  plane waves:    2550
 k-point  23 :   0.4167 0.0417 0.0000  plane waves:    2539
 k-point  24 :   0.4583 0.0417 0.0000  plane waves:    2537
 k-point  25 :   0.5000 0.0417 0.0000  plane waves:    2524
 k-point  26 :  -0.4583 0.0417 0.0000  plane waves:    2525
 k-point  27 :  -0.4167 0.0417 0.0000  plane waves:    2539
 k-point  28 :  -0.3750 0.0417 0.0000  plane waves:    2538
 k-point  29 :  -0.3333 0.0417 0.0000  plane waves:    2544
 k-point  30 :  -0.2917 0.0417 0.0000  plane waves:    2544
 k-point  31 :  -0.2500 0.0417 0.0000  plane waves:    2553
 k-point  32 :  -0.2083 0.0417 0.0000  plane waves:    2563
 k-point  33 :  -0.1667 0.0417 0.0000  plane waves:    2573
 k-point  34 :  -0.1250 0.0417 0.0000  plane waves:    2578
 k-point  35 :  -0.0833 0.0417 0.0000  plane waves:    2575
 k-point  36 :  -0.0417 0.0417 0.0000  plane waves:    2583
 k-point  37 :   0.0833 0.0833 0.0000  plane waves:    2577
 k-point  38 :   0.1250 0.0833 0.0000  plane waves:    2572
 k-point  39 :   0.1667 0.0833 0.0000  plane waves:    2571
 k-point  40 :   0.2083 0.0833 0.0000  plane waves:    2564
 k-point  41 :   0.2500 0.0833 0.0000  plane waves:    2561
 k-point  42 :   0.2917 0.0833 0.0000  plane waves:    2556
 k-point  43 :   0.3333 0.0833 0.0000  plane waves:    2543
 k-point  44 :   0.3750 0.0833 0.0000  plane waves:    2539
 k-point  45 :   0.4167 0.0833 0.0000  plane waves:    2537
 k-point  46 :   0.4583 0.0833 0.0000  plane waves:    2534
 k-point  47 :   0.5000 0.0833 0.0000  plane waves:    2534
 k-point  48 :  -0.4583 0.0833 0.0000  plane waves:    2533
 k-point  49 :  -0.4167 0.0833 0.0000  plane waves:    2537
 k-point  50 :  -0.3750 0.0833 0.0000  plane waves:    2540
 k-point  51 :  -0.3333 0.0833 0.0000  plane waves:    2538
 k-point  52 :  -0.2917 0.0833 0.0000  plane waves:    2544
 k-point  53 :  -0.2500 0.0833 0.0000  plane waves:    2550
 k-point  54 :  -0.2083 0.0833 0.0000  plane waves:    2566
 k-point  55 :  -0.1667 0.0833 0.0000  plane waves:    2572
 k-point  56 :  -0.1250 0.0833 0.0000  plane waves:    2575
 k-point  57 :  -0.0833 0.0833 0.0000  plane waves:    2575
 k-point  58 :   0.1250 0.1250 0.0000  plane waves:    2577
 k-point  59 :   0.1667 0.1250 0.0000  plane waves:    2571
 k-point  60 :   0.2083 0.1250 0.0000  plane waves:    2568
[...]
 k-point 399 :  -0.3333 0.4167 0.1667  plane waves:    2540
 k-point 400 :  -0.2917 0.4167 0.1667  plane waves:    2540
 k-point 401 :  -0.2500 0.4167 0.1667  plane waves:    2540
 k-point 402 :  -0.3750 0.4583 0.1667  plane waves:    2546
 k-point 403 :  -0.3333 0.4583 0.1667  plane waves:    2541
 k-point 404 :  -0.2917 0.4583 0.1667  plane waves:    2537
 k-point 405 :  -0.3333 0.5000 0.1667  plane waves:    2536
 k-point 406 :  -0.3750 0.4167 0.2083  plane waves:    2545
 k-point 407 :  -0.3333 0.4167 0.2083  plane waves:    2541
 k-point 408 :  -0.2917 0.4167 0.2083  plane waves:    2540
 k-point 409 :  -0.3333 0.4583 0.2083  plane waves:    2543
 k-point 410 :  -0.2917 0.4583 0.2083  plane waves:    2537
 k-point 411 :  -0.2500 0.4583 0.2083  plane waves:    2539
 k-point 412 :  -0.2917 0.5000 0.2083  plane waves:    2542
 k-point 413 :  -0.2500 0.5000 0.2500  plane waves:    2520

 maximum and minimum number of plane-waves per node :       278      240

 maximum number of plane-waves:      2637
 maximum index in each direction:
   IXMAX=    9   IYMAX=    9   IZMAX=    9
   IXMIN=  -10   IYMIN=   -9   IZMIN=   -9

 parallel 3D FFT for wavefunctions:
    minimum data exchange during FFTs selected (reduces bandwidth)
 parallel 3D FFT for charge:
    minimum data exchange during FFTs selected (reduces bandwidth)

 Broyden mixing: mesh for mixing (old mesh)
   NGX = 19   NGY = 19   NGZ = 19
  (NGX  = 80   NGY  = 80   NGZ  = 80)
  gives a total of   6859 points

 initial charge density was supplied:
 charge density of overlapping atoms calculated
 number of electron       8.0000000 magnetization
 keeping initial charge density in first step

 Maximum index for augmentation-charges        17059 (set IRDMAX)

 First call to EWALD:  gamma=   0.483
 Maximum number of real-space cells 3x 3x 3
 Maximum number of reciprocal cells 3x 3x 3

--------------------------------------- Iteration      1(   1)  ---------------------------------------

 BZINTS: Fermi energy:    8.702093;    8.000000 electrons
         Band energy: 0.101144E+02;  BLOECHL correction:   -0.233470

 eigenvalue-minimisations  :  6608
 total energy-change (2. order) : 0.2826607E+01  (-0.4045155E+03)
 number of electron       8.0000000 magnetization
 augmentation part        8.0000000 magnetization

 Free energy of the ion-electron system (eV)
  alpha Z        PSCENC =         2.71812123
  Ewald energy   TEWEN  =      -212.88163642
  -Hartree energ DENC   =       -14.43106576
  -exchange      EXHF   =         0.00000000
  -V(xc)+E(xc)   XCENC  =       -10.65795439
  PAW double counting   =       166.52371732     -144.69237092
  entropy T*S    EENTRO =         0.00000000
  eigenvalues    EBANDS =        10.11437362
  atomic energy  EATOM  =       206.13342277
  Solvation  Ediel_sol  =         0.00000000
  free energy    TOTEN  =         2.82660745 eV

  energy without entropy =        2.82660745  energy(sigma->0) =        2.82660745

[...]

 BZINTS: Fermi energy:    4.235716;    8.000000 electrons
         Band energy:-0.106891E+02;  BLOECHL correction:   -0.000000

 eigenvalue-minimisations  :  9688
 total energy-change (2. order) :-0.2080346E+02  (-0.2048144E+02)
 number of electron       8.0000000 magnetization
 augmentation part        8.0000000 magnetization

[...]

 Broyden mixing:
  rms(total) = 0.46794E+00    rms(broyden)= 0.65777E+02
  rms(prec ) = 0.10134E+01
  weight for this iteration     100.00
  WARNING: grid for Broyden might be to small

[...]

 eigenvalues of (default mixing * dielectric matrix)
  average eigenvalue GAMMA=   0.6294
  0.6294

[...]

 eigenvalue-minimisations  :  3712
 total energy-change (2. order) : 0.8983657E-06  (-0.8805309E-08)
 number of electron       8.0000000 magnetization
 augmentation part       -0.4346481 magnetization

 Broyden mixing:
  rms(total) = 0.33822E-04    rms(broyden)= 0.15952E-02
  rms(prec ) = 0.45111E-04
  weight for this iteration     100.00
  WARNING: grid for Broyden might be to small

 eigenvalues of (default mixing * dielectric matrix)
  average eigenvalue GAMMA=   1.2492
  2.7409  2.6326  1.3525  1.0171  0.8121  0.7534  0.6229  0.6438  0.6678

[...]

--------------------------------------- Iteration      1(  15)  ---------------------------------------

[...]

 eigenvalue-minimisations  :  3464
 total energy-change (2. order) :-0.3637979E-07  (-0.4365081E-09)
 number of electron       8.0000000 magnetization
 augmentation part       -0.4346481 magnetization

 Free energy of the ion-electron system (eV)
  alpha Z        PSCENC =         2.71812123
  Ewald energy   TEWEN  =      -212.88163642
  -Hartree energ DENC   =       -17.45824851
  -exchange      EXHF   =         0.00000000
  -V(xc)+E(xc)   XCENC  =        -9.76700926
  PAW double counting   =       990.66997441     -968.92323052
  entropy T*S    EENTRO =         0.00000000
  eigenvalues    EBANDS =        -7.59183360
  atomic energy  EATOM  =       206.13342277
  Solvation  Ediel_sol  =         0.00000000
  free energy    TOTEN  =       -17.10043990 eV

  energy without entropy =      -17.10043990  energy(sigma->0) =      -17.10043990

 average (electrostatic) potential at core
  the test charge radii are     0.9892
  (the norm of the test charge is              1.0000)
       1 -88.4501       2 -88.4501

 E-fermi :   4.8302     XC(G=0):  -9.0310     alpha+bet : -9.6831

 k-point     1 :       0.0000    0.0000    0.0000
  band No.  band energies     occupation
      1      -7.3792      2.00000
      2       3.7690      2.00000
      3       3.7690      2.00000
      4       3.7690      2.00000
      5       5.3172      0.00000
      6       6.4013      0.00000
      7       6.4013      0.00000
      8       6.4013      0.00000

[...]

 k-point   413 :      -0.2500    0.5000    0.2500
  band No.  band energies     occupation
      1      -3.6671      2.00000
      2      -3.6671      2.00000
      3       0.5821      2.00000
      4       0.5821      2.00000
      5       8.3318      0.00000
      6       8.3318      0.00000
      7       8.3566      0.00000
      8       8.3566      0.00000

 soft charge-density along one line, spin component           1
         0         1         2         3         4         5         6         7         8         9
 total charge-density along one line

------------------------ aborting loop because EDIFF is reached ----------------------------------------

 total charge

# of ion       s       p       d       tot
    1        0.753   0.828   0.000   1.581
    2        0.753   0.828   0.000   1.581
tot          1.507   1.656   0.000   3.162

  FORCE on cell =-STRESS in cart. coord.  units (eV):
  Direction    XX          YY          ZZ          XY          YZ          ZX
  Alpha Z     2.71812     2.71812     2.71812
  Ewald     -70.96058   -70.96058   -70.96058    -0.00000     0.00000     0.00000
  Hartree     5.81943     5.81943     5.81943     0.00000     0.00000     0.00000
  E(xc)     -23.30096   -23.38576   -23.44646     0.11448    -0.02562     0.04629
  Local     -32.01961   -32.01961   -32.01961     0.00000     0.00000     0.00000
  n-local    73.25398    74.81357    69.31392     1.84543    -1.04754     0.36634
  augment   -10.62621   -10.62621   -10.62621    -0.00000    -0.00000    -0.00000
  Kinetic    54.05556    52.92064    49.08425     3.50892    -1.06505     1.05627
  Fock        0.00000     0.00000     0.00000     0.00000     0.00000     0.00000
  Total      -3.96593    -3.96593    -3.96593    -0.00000     0.00000     0.00000
  in kB    -128.26554  -128.26554  -128.26554    -0.00000     0.00000     0.00000

 VOLUME and BASIS-vectors are now :
  energy-cutoff  :      800.00
  volume of cell :       49.54
      direct lattice vectors                 reciprocal lattice vectors
     0.000000000  2.915000000  2.915000000    -0.171526587  0.171526587  0.171526587
     2.915000000  0.000000000  2.915000000     0.171526587 -0.171526587  0.171526587
     2.915000000  2.915000000  0.000000000     0.171526587  0.171526587 -0.171526587

  length of vectors
     4.122432534  4.122432534  4.122432534     0.297092763  0.297092763  0.297092763

 FORCES acting on ions
    electron-ion (+dipol)            ewald-force                    non-local-force                 convergence-correction
   -.317E-08 -.317E-08 -.547E-08   -.816E-14 -.651E-14 0.550E-14   0.173E-15 0.451E-16 0.798E-16   -.177E-10 -.177E-10 -.177E-10
   0.317E-08 0.317E-08 0.547E-08   0.813E-14 0.636E-14 -.526E-14   -.867E-16 0.278E-16 0.312E-16   0.177E-10 0.177E-10 0.177E-10
   0.399E-13 -.659E-13 -.320E-13   -.396E-16 -.150E-15 0.242E-15   0.867E-16 0.729E-16 0.111E-15   -.332E-14 -.269E-14 -.220E-14

 POSITION                                       TOTAL-FORCE (eV/Angst)
      5.10125      5.10125      5.10125        -0.000000     -0.000000     -0.000000
      0.72875      0.72875      0.72875         0.000000      0.000000      0.000000
    total drift:                                0.000000     -0.000000     -0.000000

  FREE ENERGIE OF THE ION-ELECTRON SYSTEM (eV)
  free  energy   TOTEN  =       -17.10043990 eV

  energy  without entropy=      -17.10043990  energy(sigma->0) =      -17.10043990

 total charge

# of ion       s       p       d       tot
    1        0.753   0.828   0.000   1.581
    2        0.753   0.828   0.000   1.581
tot          1.507   1.656   0.000   3.162

 BZINTS: Fermi energy:    4.830177;    8.000000 electrons
         Band energy:-0.759183E+01;  BLOECHL correction:    0.000000