 vasp.6.1.2 22Jul20 (build Mar 11 2021 17:42:27) complex

 executed on             LinuxIFC date 2021.03.11  18:22:48

 INCAR:
 POTCAR:    PAW_PBE Si 05Jan2001
 POTCAR:    PAW_PBE Si 05Jan2001
   VRHFIN =Si: s2p2

   TITEL  = PAW_PBE Si 05Jan2001
   POMASS =   28.085; ZVAL   =    4.000    mass and valenz
   ENMAX  =  245.345; ENMIN  =  184.009 eV

  PAW_PBE Si 05Jan2001                  :

 POSCAR: Unknown
  positions in direct lattice

 METAGGA = R2SCA    LMAXTAU =  6    LMIXTAU =  T

 ion  position               nearest neighbor table
   1  0.875  0.875  0.875-   2 2.33   2 2.33   2 2.33   2 2.33
   2  0.125  0.125  0.125-   1 2.33   1 2.33   1 2.33   1 2.33

  LATTYP: Found a face centered cubic cell.
 ALAT       =     5.3901310054

  Lattice vectors:

 A1 = (   0.0000000000,   2.6950655027,   2.6950655027)
 A2 = (   2.6950655027,   0.0000000000,   2.6950655027)
 A3 = (   2.6950655027,   2.6950655027,   0.0000000000)

Analysis of symmetry for initial positions (statically):
 Subroutine PRICEL returns:
 Original cell was already a primitive cell.

 Routine SETGRP: Setting up the symmetry group for a
 face centered cubic supercell.

 Subroutine GETGRP returns: Found 48 space group operations
 (whereof 12 operations were pure point group operations)
 out of a pool of 48 trial point group operations.

The static configuration has the point symmetry D_3d.
 The point group associated with its full space group is O_h .

Analysis of symmetry for dynamics (positions and initial velocities):
 Subroutine PRICEL returns:
 Original cell was already a primitive cell.

 Routine SETGRP: Setting up the symmetry group for a
 face centered cubic supercell.

 Subroutine GETGRP returns: Found 48 space group operations
 (whereof 12 operations were pure point group operations)
 out of a pool of 48 trial point group operations.

The dynamic configuration has the point symmetry D_3d.
 The point group associated with its full space group is O_h .

 Subroutine INISYM returns: Found 48 space group operations
 (whereof 12 operations are pure point group operations),
 and found     1 'primitive' translations

                                     Primitive cell

  volume of cell :      39.1506

  direct lattice vectors                    reciprocal lattice vectors
     0.000000000  2.695065503  2.695065503    -0.185524248  0.185524248  0.185524248
     2.695065503  0.000000000  2.695065503     0.185524248 -0.185524248  0.185524248
     2.695065503  2.695065503  0.000000000     0.185524248  0.185524248 -0.185524248

  length of vectors
     3.811398185  3.811398185  3.811398185     0.321337423  0.321337423  0.321337423

  position of ions in fractional coordinates (direct lattice)
     0.875000000  0.875000000  0.875000000
     0.125000000  0.125000000  0.125000000

  ion indices of the primitive-cell ions
   primitive index   ion index
                 1           1
                 2           2

Automatic generation of k-mesh.
 generate k-points for:   26   26   26
Space group operators:
 irot       det(A)        alpha          n_x          n_y          n_z        tau_x        tau_y        tau_z
    1     1.000000     0.000000     1.000000     0.000000     0.000000     0.000000     0.000000     0.000000
    2    -1.000000     0.000000     1.000000     0.000000     0.000000     0.000000     0.000000     0.000000
    3     1.000000   120.000000    -0.577350    -0.577350    -0.577350     0.000000     0.000000     0.000000
    4    -1.000000   120.000000    -0.577350    -0.577350    -0.577350     0.000000     0.000000     0.000000
    5     1.000000   120.000000     0.577350     0.577350     0.577350     0.000000     0.000000     0.000000
    6    -1.000000   120.000000     0.577350     0.577350     0.577350     0.000000     0.000000     0.000000
    7     1.000000   180.000000     0.000000    -0.707107     0.707107     0.000000     0.000000     0.000000
    8    -1.000000   180.000000     0.000000    -0.707107     0.707107     0.000000     0.000000     0.000000
    9     1.000000   180.000000     0.707107    -0.707107     0.000000     0.000000     0.000000     0.000000
   10    -1.000000   180.000000     0.707107    -0.707107     0.000000     0.000000     0.000000     0.000000
   11     1.000000   180.000000     0.707107     0.000000    -0.707107     0.000000     0.000000     0.000000
   12    -1.000000   180.000000     0.707107     0.000000    -0.707107     0.000000     0.000000     0.000000
   13     1.000000    90.000000     0.000000     0.000000    -1.000000    -0.500000     0.000000     0.000000
   14    -1.000000    90.000000     0.000000     0.000000    -1.000000    -0.500000     0.000000     0.000000
   15     1.000000   180.000000     0.000000     0.707107     0.707107    -0.500000     0.000000     0.000000
   16    -1.000000   180.000000     0.000000     0.707107     0.707107    -0.500000     0.000000     0.000000
   17     1.000000    90.000000     0.000000     1.000000     0.000000    -0.500000     0.000000     0.000000
   18    -1.000000    90.000000     0.000000     1.000000     0.000000    -0.500000     0.000000     0.000000
   19     1.000000   180.000000     0.000000     0.000000     1.000000     0.000000     0.000000    -0.500000
   20    -1.000000   180.000000     0.000000     0.000000     1.000000     0.000000     0.000000    -0.500000
   21     1.000000   120.000000    -0.577350     0.577350     0.577350     0.000000     0.000000    -0.500000
   22    -1.000000   120.000000    -0.577350     0.577350     0.577350     0.000000     0.000000    -0.500000
   23     1.000000   120.000000    -0.577350     0.577350    -0.577350     0.000000     0.000000    -0.500000
   24    -1.000000   120.000000    -0.577350     0.577350    -0.577350     0.000000     0.000000    -0.500000
   25     1.000000    90.000000     0.000000     0.000000     1.000000     0.000000    -0.500000     0.000000
   26    -1.000000    90.000000     0.000000     0.000000     1.000000     0.000000    -0.500000     0.000000
   27     1.000000    90.000000    -1.000000     0.000000     0.000000     0.000000    -0.500000     0.000000
   28    -1.000000    90.000000    -1.000000     0.000000     0.000000     0.000000    -0.500000     0.000000
   29     1.000000   180.000000     0.707107     0.000000     0.707107     0.000000    -0.500000     0.000000
   30    -1.000000   180.000000     0.707107     0.000000     0.707107     0.000000    -0.500000     0.000000
   31     1.000000   120.000000     0.577350    -0.577350     0.577350    -0.500000     0.000000     0.000000
   32    -1.000000   120.000000     0.577350    -0.577350     0.577350    -0.500000     0.000000     0.000000
   33     1.000000   120.000000    -0.577350    -0.577350     0.577350    -0.500000     0.000000     0.000000
   34    -1.000000   120.000000    -0.577350    -0.577350     0.577350    -0.500000     0.000000     0.000000
   35     1.000000   180.000000     1.000000     0.000000     0.000000    -0.500000     0.000000     0.000000
   36    -1.000000   180.000000     1.000000     0.000000     0.000000    -0.500000     0.000000     0.000000
   37     1.000000    90.000000     0.000000    -1.000000     0.000000     0.000000     0.000000    -0.500000
   38    -1.000000    90.000000     0.000000    -1.000000     0.000000     0.000000     0.000000    -0.500000
   39     1.000000   180.000000     0.707107     0.707107     0.000000     0.000000     0.000000    -0.500000
   40    -1.000000   180.000000     0.707107     0.707107     0.000000     0.000000     0.000000    -0.500000
   41     1.000000    90.000000     1.000000     0.000000     0.000000     0.000000     0.000000    -0.500000
   42    -1.000000    90.000000     1.000000     0.000000     0.000000     0.000000     0.000000    -0.500000
   43     1.000000   120.000000     0.577350    -0.577350    -0.577350     0.000000    -0.500000     0.000000
   44    -1.000000   120.000000     0.577350    -0.577350    -0.577350     0.000000    -0.500000     0.000000
   45     1.000000   180.000000     0.000000     1.000000     0.000000     0.000000    -0.500000     0.000000
   46    -1.000000   180.000000     0.000000     1.000000     0.000000     0.000000    -0.500000     0.000000
   47     1.000000   120.000000     0.577350     0.577350    -0.577350     0.000000    -0.500000     0.000000
   48    -1.000000   120.000000     0.577350     0.577350    -0.577350     0.000000    -0.500000     0.000000
 TETIRR: Found   2360 inequivalent tetrahedra from   105456

 Subroutine IBZKPT returns following result:

 Found    511 irreducible k-points:

 Following reciprocal coordinates:
            Coordinates               Weight
  0.000000  0.000000  0.000000      1.000000
  0.038462  0.000000  0.000000      8.000000
  0.076923  0.000000  0.000000      8.000000
  0.115385  0.000000  0.000000      8.000000
  0.153846  0.000000  0.000000      8.000000
  0.192308  0.000000  0.000000      8.000000
  0.230769  0.000000  0.000000      8.000000
  0.269231  0.000000  0.000000      8.000000
  0.307692  0.000000  0.000000      8.000000
  0.346154  0.000000  0.000000      8.000000
  0.384615  0.000000  0.000000      8.000000
  0.423077  0.000000  0.000000      8.000000
  0.461538  0.000000  0.000000      8.000000
  0.500000  0.000000  0.000000      4.000000
  0.038462  0.038462  0.000000      6.000000
  0.076923  0.038462  0.000000     24.000000
  0.115385  0.038462  0.000000     24.000000
  0.153846  0.038462  0.000000     24.000000
  0.192308  0.038462  0.000000     24.000000
  0.230769  0.038462  0.000000     24.000000
  0.269231  0.038462  0.000000     24.000000
  0.307692  0.038462  0.000000     24.000000
  0.346154  0.038462  0.000000     24.000000
  0.384615  0.038462  0.000000     24.000000
  0.423077  0.038462  0.000000     24.000000
  0.461538  0.038462  0.000000     24.000000
  0.500000  0.038462  0.000000     24.000000
 -0.461538  0.038462  0.000000     24.000000
 -0.423077  0.038462  0.000000     24.000000
 -0.384615  0.038462  0.000000     24.000000
 -0.346154  0.038462  0.000000     24.000000
 -0.307692  0.038462  0.000000     24.000000
 -0.269231  0.038462  0.000000     24.000000
 -0.230769  0.038462  0.000000     24.000000
 -0.192308  0.038462  0.000000     24.000000
 -0.153846  0.038462  0.000000     24.000000
 -0.115385  0.038462  0.000000     24.000000
 -0.076923  0.038462  0.000000     24.000000
 -0.038462  0.038462  0.000000     12.000000
  0.076923  0.076923  0.000000      6.000000
  0.115385  0.076923  0.000000     24.000000
  0.153846  0.076923  0.000000     24.000000
  0.192308  0.076923  0.000000     24.000000
  0.230769  0.076923  0.000000     24.000000
  0.269231  0.076923  0.000000     24.000000
  0.307692  0.076923  0.000000     24.000000
  0.346154  0.076923  0.000000     24.000000
  0.384615  0.076923  0.000000     24.000000
  0.423077  0.076923  0.000000     24.000000
  0.461538  0.076923  0.000000     24.000000
  0.500000  0.076923  0.000000     24.000000
 -0.461538  0.076923  0.000000     24.000000
 -0.423077  0.076923  0.000000     24.000000
 -0.384615  0.076923  0.000000     24.000000
 -0.346154  0.076923  0.000000     24.000000
 -0.307692  0.076923  0.000000     24.000000
 -0.269231  0.076923  0.000000     24.000000
[...]
   0.15384615  0.00000000  0.00000000       0.000
   0.19230769  0.00000000  0.00000000       0.000
   0.23076923  0.00000000  0.00000000       0.000
   0.26923077  0.00000000  0.00000000       0.000
   0.30769231  0.00000000  0.00000000       0.000
   0.34615385  0.00000000  0.00000000       0.000
   0.38461538  0.00000000  0.00000000       0.000
   0.42307692  0.00000000  0.00000000       0.000
   0.46153846  0.00000000  0.00000000       0.000
   0.50000000  0.00000000  0.00000000       0.000
   0.03846154  0.03846154  0.00000000       0.000
   0.07692308  0.03846154  0.00000000       0.001
   0.11538462  0.03846154  0.00000000       0.001
   0.15384615  0.03846154  0.00000000       0.001
   0.19230769  0.03846154  0.00000000       0.001
   0.23076923  0.03846154  0.00000000       0.001
   0.26923077  0.03846154  0.00000000       0.001
   0.30769231  0.03846154  0.00000000       0.001
   0.34615385  0.03846154  0.00000000       0.001
   0.38461538  0.03846154  0.00000000       0.001
   0.42307692  0.03846154  0.00000000       0.001
   0.46153846  0.03846154  0.00000000       0.001
   0.50000000  0.03846154  0.00000000       0.001
  -0.46153846  0.03846154  0.00000000       0.001
  -0.42307692  0.03846154  0.00000000       0.001
  -0.38461538  0.03846154  0.00000000       0.001
  -0.34615385  0.03846154  0.00000000       0.001
  -0.30769231  0.03846154  0.00000000       0.001
  -0.26923077  0.03846154  0.00000000       0.001
  -0.23076923  0.03846154  0.00000000       0.001
  -0.19230769  0.03846154  0.00000000       0.001
  -0.15384615  0.03846154  0.00000000       0.001
  -0.11538462  0.03846154  0.00000000       0.001
  -0.07692308  0.03846154  0.00000000       0.001
  -0.03846154  0.03846154  0.00000000       0.001
   0.07692308  0.07692308  0.00000000       0.000
   0.11538462  0.07692308  0.00000000       0.001
   0.15384615  0.07692308  0.00000000       0.001
   0.19230769  0.07692308  0.00000000       0.001
   0.23076923  0.07692308  0.00000000       0.001
   0.26923077  0.07692308  0.00000000       0.001
   0.30769231  0.07692308  0.00000000       0.001
   0.34615385  0.07692308  0.00000000       0.001
   0.38461538  0.07692308  0.00000000       0.001
   0.42307692  0.07692308  0.00000000       0.001
   0.46153846  0.07692308  0.00000000       0.001
   0.50000000  0.07692308  0.00000000       0.001
  -0.46153846  0.07692308  0.00000000       0.001
  -0.42307692  0.07692308  0.00000000       0.001
  -0.38461538  0.07692308  0.00000000       0.001
  -0.34615385  0.07692308  0.00000000       0.001
  -0.30769231  0.07692308  0.00000000       0.001
  -0.26923077  0.07692308  0.00000000       0.001
  -0.23076923  0.07692308  0.00000000       0.001
  -0.19230769  0.07692308  0.00000000       0.001
  -0.15384615  0.07692308  0.00000000       0.001
[...]
  -0.38461538  0.38461538  0.19230769       0.003
  -0.34615385  0.38461538  0.19230769       0.003
  -0.30769231  0.38461538  0.19230769       0.001
  -0.38461538  0.42307692  0.19230769       0.001
  -0.34615385  0.42307692  0.19230769       0.003
  -0.30769231  0.42307692  0.19230769       0.003
  -0.26923077  0.42307692  0.19230769       0.003
  -0.23076923  0.42307692  0.19230769       0.001
  -0.34615385  0.46153846  0.19230769       0.001
  -0.30769231  0.46153846  0.19230769       0.003
  -0.26923077  0.46153846  0.19230769       0.001
  -0.30769231  0.50000000  0.19230769       0.001
  -0.30769231  0.46153846  0.23076923       0.001
  -0.26923077  0.46153846  0.23076923       0.001
  -0.26923077  0.50000000  0.23076923       0.001

 position of ions in fractional coordinates (direct lattice)
   0.87500000  0.87500000  0.87500000
   0.12500000  0.12500000  0.12500000

 position of ions in cartesian coordinates  (Angst):
   4.71636463  4.71636463  4.71636463
   0.67376638  0.67376638  0.67376638

 k-point   1 :   0.0000 0.0000 0.0000  plane waves:    1989
 k-point   2 :   0.0385 0.0000 0.0000  plane waves:    2025
 k-point   3 :   0.0769 0.0000 0.0000  plane waves:    2019
 k-point   4 :   0.1154 0.0000 0.0000  plane waves:    2016
 k-point   5 :   0.1538 0.0000 0.0000  plane waves:    2007
 k-point   6 :   0.1923 0.0000 0.0000  plane waves:    2012
 k-point   7 :   0.2308 0.0000 0.0000  plane waves:    2006
 k-point   8 :   0.2692 0.0000 0.0000  plane waves:    2012
 k-point   9 :   0.3077 0.0000 0.0000  plane waves:    2012
 k-point  10 :   0.3462 0.0000 0.0000  plane waves:    2012
 k-point  11 :   0.3846 0.0000 0.0000  plane waves:    2024
 k-point  12 :   0.4231 0.0000 0.0000  plane waves:    2015
 k-point  13 :   0.4615 0.0000 0.0000  plane waves:    2021
 k-point  14 :   0.5000 0.0000 0.0000  plane waves:    2006
 k-point  15 :   0.0385 0.0385 0.0000  plane waves:    2029
 k-point  16 :   0.0769 0.0385 0.0000  plane waves:    2026
 k-point  17 :   0.1154 0.0385 0.0000  plane waves:    2013
 k-point  18 :   0.1538 0.0385 0.0000  plane waves:    2015
 k-point  19 :   0.1923 0.0385 0.0000  plane waves:    2006
 k-point  20 :   0.2308 0.0385 0.0000  plane waves:    2008
 k-point  21 :   0.2692 0.0385 0.0000  plane waves:    2000
 k-point  22 :   0.3077 0.0385 0.0000  plane waves:    2008
 k-point  23 :   0.3462 0.0385 0.0000  plane waves:    2014
 k-point  24 :   0.3846 0.0385 0.0000  plane waves:    2015
 k-point  25 :   0.4231 0.0385 0.0000  plane waves:    2007
 k-point  26 :   0.4615 0.0385 0.0000  plane waves:    2020
 k-point  27 :   0.5000 0.0385 0.0000  plane waves:    2019
 k-point  28 :  -0.4615 0.0385 0.0000  plane waves:    2021
 k-point  29 :  -0.4231 0.0385 0.0000  plane waves:    2016
 k-point  30 :  -0.3846 0.0385 0.0000  plane waves:    2014
 k-point  31 :  -0.3462 0.0385 0.0000  plane waves:    2018
 k-point  32 :  -0.3077 0.0385 0.0000  plane waves:    2010
 k-point  33 :  -0.2692 0.0385 0.0000  plane waves:    2004
 k-point  34 :  -0.2308 0.0385 0.0000  plane waves:    2005
 k-point  35 :  -0.1923 0.0385 0.0000  plane waves:    2006
 k-point  36 :  -0.1538 0.0385 0.0000  plane waves:    2006
 k-point  37 :  -0.1154 0.0385 0.0000  plane waves:    2012
 k-point  38 :  -0.0769 0.0385 0.0000  plane waves:    2015
 k-point  39 :  -0.0385 0.0385 0.0000  plane waves:    2025
 k-point  40 :   0.0769 0.0769 0.0000  plane waves:    2025
 k-point  41 :   0.1154 0.0769 0.0000  plane waves:    2017
 k-point  42 :   0.1538 0.0769 0.0000  plane waves:    2009
 k-point  43 :   0.1923 0.0769 0.0000  plane waves:    2007
 k-point  44 :   0.2308 0.0769 0.0000  plane waves:    2000
 k-point  45 :   0.2692 0.0769 0.0000  plane waves:    2009
 k-point  46 :   0.3077 0.0769 0.0000  plane waves:    2005
 k-point  47 :   0.3462 0.0769 0.0000  plane waves:    2008
 k-point  48 :   0.3846 0.0769 0.0000  plane waves:    2007
 k-point  49 :   0.4231 0.0769 0.0000  plane waves:    2006
 k-point  50 :   0.4615 0.0769 0.0000  plane waves:    2013
 k-point  51 :   0.5000 0.0769 0.0000  plane waves:    2006
 k-point  52 :  -0.4615 0.0769 0.0000  plane waves:    2002
 k-point  53 :  -0.4231 0.0769 0.0000  plane waves:    2010
 k-point  54 :  -0.3846 0.0769 0.0000  plane waves:    2014
 k-point  55 :  -0.3462 0.0769 0.0000  plane waves:    2007
 k-point  56 :  -0.3077 0.0769 0.0000  plane waves:    2008
 k-point  57 :  -0.2692 0.0769 0.0000  plane waves:    2007
 k-point  58 :  -0.2308 0.0769 0.0000  plane waves:    2009
 k-point  59 :  -0.1923 0.0769 0.0000  plane waves:    2002
 k-point  60 :  -0.1538 0.0769 0.0000  plane waves:    2005
[...]
 k-point 497 :  -0.3846 0.3846 0.1923  plane waves:    2014
 k-point 498 :  -0.3462 0.3846 0.1923  plane waves:    2011
 k-point 499 :  -0.3077 0.3846 0.1923  plane waves:    2006
 k-point 500 :  -0.3846 0.4231 0.1923  plane waves:    2012
 k-point 501 :  -0.3462 0.4231 0.1923  plane waves:    2013
 k-point 502 :  -0.3077 0.4231 0.1923  plane waves:    1999
 k-point 503 :  -0.2692 0.4231 0.1923  plane waves:    2006
 k-point 504 :  -0.2308 0.4231 0.1923  plane waves:    2016
 k-point 505 :  -0.3462 0.4615 0.1923  plane waves:    2013
 k-point 506 :  -0.3077 0.4615 0.1923  plane waves:    2004
 k-point 507 :  -0.2692 0.4615 0.1923  plane waves:    2001
 k-point 508 :  -0.3077 0.5000 0.1923  plane waves:    2004
 k-point 509 :  -0.3077 0.4615 0.2308  plane waves:    1998
 k-point 510 :  -0.2692 0.4615 0.2308  plane waves:    1996
 k-point 511 :  -0.2692 0.5000 0.2308  plane waves:    1996

 maximum and minimum number of plane-waves per node :       217      191

 maximum number of plane-waves:      2044
 maximum index in each direction:
   IXMAX=    9   IYMAX=    8   IZMAX=    8
   IXMIN=   -9   IYMIN=   -9   IZMIN=   -9

 parallel 3D FFT for wavefunctions:
    minimum data exchange during FFTs selected (reduces bandwidth)
 parallel 3D FFT for charge:
    minimum data exchange during FFTs selected (reduces bandwidth)

 Broyden mixing: mesh for mixing (old mesh)
   NGX = 17   NGY = 17   NGZ = 17
  (NGX  = 72   NGY  = 72   NGZ  = 72)
  gives a total of   4913 points

 initial charge density was supplied:
 charge density of overlapping atoms calculated
 number of electron       8.0000000 magnetization
 keeping initial charge density in first step

 Maximum index for augmentation-charges        18881 (set IRDMAX)

 First call to EWALD:  gamma=   0.522
 Maximum number of real-space cells 3x 3x 3
 Maximum number of reciprocal cells 3x 3x 3

--------------------------------------- Iteration      1(   1)  ---------------------------------------

 BZINTS: Fermi energy:   11.009055;    8.000000 electrons
         Band energy: 0.221272E+02;  BLOECHL correction:   -0.225621

 eigenvalue-minimisations  :  8176
 total energy-change (2. order) : 0.2876580E+01  (-0.4312920E+03)
 number of electron       8.0000000 magnetization
 augmentation part        8.0000000 magnetization

 Free energy of the ion-electron system (eV)
  alpha Z        PSCENC =         3.43935120
  Ewald energy   TEWEN  =      -230.25413280
  -Hartree energ DENC   =       -10.67181508
  -exchange      EXHF   =         0.00000000
  -V(xc)+E(xc)   XCENC  =        -9.72877096
  PAW double counting   =       166.52371732     -144.69237092
  entropy T*S    EENTRO =         0.00000000
  eigenvalues    EBANDS =        22.12717861
  atomic energy  EATOM  =       206.13342277
  Solvation  Ediel_sol  =         0.00000000
  free energy    TOTEN  =         2.87658013 eV

  energy without entropy =        2.87658013  energy(sigma->0) =        2.87658013

[...]

 eigenvalue-minimisations  : 12184
 total energy-change (2. order) :-0.2130263E+02  (-0.2107065E+02)
 number of electron       8.0000000 magnetization
 augmentation part        8.0000000 magnetization

[...]

 Broyden mixing:
  rms(total) = 0.62086E+00    rms(broyden)= 0.72052E+02
  rms(prec ) = 0.12482E+01
  weight for this iteration     100.00
  WARNING: grid for Broyden might be to small

[...]

 eigenvalues of (default mixing * dielectric matrix)
  average eigenvalue GAMMA=   0.6247
  0.6247

[...]

 eigenvalue-minimisations  :  8336
 total energy-change (2. order) :-0.4324922E-05  (-0.1086136E-07)
 number of electron       8.0000000 magnetization
 augmentation part       -0.4360625 magnetization

 Broyden mixing:
  rms(total) = 0.42745E-03    rms(broyden)= 0.16018E-01
  rms(prec ) = 0.48178E-03
  weight for this iteration     100.00
  WARNING: grid for Broyden might be to small

 eigenvalues of (default mixing * dielectric matrix)
  average eigenvalue GAMMA=   1.2120
  2.6933  2.4075  0.9519  0.9519  0.7585  0.6280  0.6280  0.6771

[...]

--------------------------------------- Iteration      1(  14)  ---------------------------------------

[...]

 eigenvalue-minimisations  :  5872
 total energy-change (2. order) : 0.1356693E-07  (-0.1431413E-08)
 number of electron       8.0000000 magnetization
 augmentation part       -0.4360625 magnetization

 Free energy of the ion-electron system (eV)
  alpha Z        PSCENC =         3.43935120
  Ewald energy   TEWEN  =      -230.25413280
  -Hartree energ DENC   =       -14.70126333
  -exchange      EXHF   =         0.00000000
  -V(xc)+E(xc)   XCENC  =        -8.66029644
  PAW double counting   =      1586.03728632    -1564.42016432
  entropy T*S    EENTRO =         0.00000000
  eigenvalues    EBANDS =         4.88496652
  atomic energy  EATOM  =       206.13342277
  Solvation  Ediel_sol  =         0.00000000
  free energy    TOTEN  =       -17.54083009 eV

  energy without entropy =      -17.54083009  energy(sigma->0) =      -17.54083009

 average (electrostatic) potential at core
  the test charge radii are     0.9892
  (the norm of the test charge is              1.0000)
       1 -85.9150       2 -85.9150

 E-fermi :   5.9692     XC(G=0):  -9.9454     alpha+bet :-12.2524

 k-point     1 :       0.0000    0.0000    0.0000
  band No.  band energies     occupation
      1      -6.7191      2.00000
      2       5.9692      2.00000
      3       5.9692      2.00000
      4       5.9692      2.00000
      5       8.7376      0.00000
      6       8.7376      0.00000
      7       8.7376      0.00000
      8      10.2391      0.00000

[...]

 k-point   511 :      -0.2692    0.5000    0.2308
  band No.  band energies     occupation
      1      -2.0861      2.00000
      2      -2.0861      2.00000
      3       1.8574      2.00000
      4       1.8574      2.00000
      5      10.3611      0.00000
      6      10.3611      0.00000
      7      11.7041      0.00000
      8      11.7041      0.00000

 soft charge-density along one line, spin component           1
         0         1         2         3         4         5         6         7         8         9
 total charge-density along one line

------------------------ aborting loop because EDIFF is reached ----------------------------------------

 total charge

# of ion       s       p       d       tot
    1        0.746   0.981   0.000   1.727
    2        0.746   0.981   0.000   1.727
tot          1.492   1.963   0.000   3.454

  FORCE on cell =-STRESS in cart. coord.  units (eV):
  Direction    XX          YY          ZZ          XY          YZ          ZX
  Alpha Z     3.43935     3.43935     3.43935
  Ewald     -76.75141   -76.75141   -76.75141     0.00000     0.00000     0.00000
  Hartree     4.90039     4.90039     4.90039     0.00000     0.00000     0.00000
  E(xc)     -24.55644   -24.72542   -24.64239     0.10250    -0.00350     0.04326
  Local     -28.64699   -28.64699   -28.64699     0.00000     0.00000     0.00000
  n-local    76.77486    78.35416    72.66940     2.27006    -1.34316     0.54011
  augment   -10.60788   -10.60788   -10.60788    -0.00000    -0.00000    -0.00000
  Kinetic    59.32145    56.22639    55.65710     3.49822    -0.71723     1.10603
  Fock        0.00000     0.00000     0.00000     0.00000     0.00000     0.00000
  Total       0.69316     0.69316     0.69316    -0.00000    -0.00000    -0.00000
  in kB      28.36669    28.36669    28.36669    -0.00000    -0.00000    -0.00000

 VOLUME and BASIS-vectors are now :
  energy-cutoff  :      800.00
  volume of cell :       39.15
      direct lattice vectors                 reciprocal lattice vectors
     0.000000000  2.695065503  2.695065503    -0.185524248  0.185524248  0.185524248
     2.695065503  0.000000000  2.695065503     0.185524248 -0.185524248  0.185524248
     2.695065503  2.695065503  0.000000000     0.185524248  0.185524248 -0.185524248

  length of vectors
     3.811398185  3.811398185  3.811398185     0.321337423  0.321337423  0.321337423

 FORCES acting on ions
    electron-ion (+dipol)            ewald-force                    non-local-force                 convergence-correction
   -.245E-07 -.245E-07 -.262E-07   -.593E-14 -.103E-13 -.633E-14   0.451E-16 -.347E-16 -.486E-16   -.642E-10 -.642E-10 -.642E-10
   0.245E-07 0.245E-07 0.262E-07   0.567E-14 0.103E-13 0.661E-14   -.236E-15 0.659E-16 0.729E-16   0.642E-10 0.642E-10 0.642E-10
   -.463E-13 0.140E-12 0.962E-13   -.256E-15 0.115E-16 0.279E-15   -.191E-15 0.312E-16 0.243E-16   -.227E-14 -.252E-14 -.336E-14

 POSITION                                       TOTAL-FORCE (eV/Angst)
      4.71636      4.71636      4.71636         0.000000      0.000000     -0.000000
      0.67377      0.67377      0.67377        -0.000000     -0.000000      0.000000
    total drift:                               -0.000000      0.000000      0.000000

  FREE ENERGIE OF THE ION-ELECTRON SYSTEM (eV)
  free  energy   TOTEN  =       -17.54083009 eV

  energy  without entropy=      -17.54083009  energy(sigma->0) =      -17.54083009

 total charge

# of ion       s       p       d       tot
    1        0.746   0.981   0.000   1.727
    2        0.746   0.981   0.000   1.727
tot          1.492   1.963   0.000   3.454

 BZINTS: Fermi energy:    5.969248;    8.000000 electrons
         Band energy: 0.488497E+01;  BLOECHL correction:    0.000000