 vasp.6.1.2 22Jul20 (build Mar 11 2021 17:42:27) complex

 executed on             LinuxIFC date 2021.03.19  16:20:12

 INCAR:
 POTCAR:    PAW_PBE C 08Apr2002
 POTCAR:    PAW_PBE C 08Apr2002
   VRHFIN =C: s2p2

   TITEL  = PAW_PBE C 08Apr2002
   POMASS =   12.011; ZVAL   =    4.000    mass and valenz
   ENMAX  =  400.000; ENMIN  =  300.000 eV

  PAW_PBE C 08Apr2002                   :

 POSCAR: carbon
  positions in direct lattice

 METAGGA = R2SCA    LMAXTAU =  6    LMIXTAU =  T

 ion  position               nearest neighbor table
   1  0.875  0.875  0.875-   2 1.58   2 1.58   2 1.58   2 1.58
   2  0.125  0.125  0.125-   1 1.58   1 1.58   1 1.58   1 1.58

  LATTYP: Found a face centered cubic cell.
 ALAT       =     3.6530000000

  Lattice vectors:

 A1 = (   0.0000000000,   1.8265000000,   1.8265000000)
 A2 = (   1.8265000000,   0.0000000000,   1.8265000000)
 A3 = (   1.8265000000,   1.8265000000,   0.0000000000)

Analysis of symmetry for initial positions (statically):
 Subroutine PRICEL returns:
 Original cell was already a primitive cell.

 Routine SETGRP: Setting up the symmetry group for a
 face centered cubic supercell.

 Subroutine GETGRP returns: Found 48 space group operations
 (whereof 12 operations were pure point group operations)
 out of a pool of 48 trial point group operations.

The static configuration has the point symmetry D_3d.
 The point group associated with its full space group is O_h .

Analysis of symmetry for dynamics (positions and initial velocities):
 Subroutine PRICEL returns:
 Original cell was already a primitive cell.

 Routine SETGRP: Setting up the symmetry group for a
 face centered cubic supercell.

 Subroutine GETGRP returns: Found 48 space group operations
 (whereof 12 operations were pure point group operations)
 out of a pool of 48 trial point group operations.

The dynamic configuration has the point symmetry D_3d.
 The point group associated with its full space group is O_h .

 Subroutine INISYM returns: Found 48 space group operations
 (whereof 12 operations are pure point group operations),
 and found     1 'primitive' translations

                                     Primitive cell

  volume of cell :      12.1868

  direct lattice vectors                    reciprocal lattice vectors
     0.000000000  1.826500000  1.826500000    -0.273747605  0.273747605  0.273747605
     1.826500000  0.000000000  1.826500000     0.273747605 -0.273747605  0.273747605
     1.826500000  1.826500000  0.000000000     0.273747605  0.273747605 -0.273747605

  length of vectors
     2.583061072  2.583061072  2.583061072     0.474144760  0.474144760  0.474144760

  position of ions in fractional coordinates (direct lattice)
     0.875000000  0.875000000  0.875000000
     0.125000000  0.125000000  0.125000000

  ion indices of the primitive-cell ions
   primitive index   ion index
                 1           1
                 2           2

Automatic generation of k-mesh.
 generate k-points for:   38   38   38
Space group operators:
 irot       det(A)        alpha          n_x          n_y          n_z        tau_x        tau_y        tau_z
    1     1.000000     0.000000     1.000000     0.000000     0.000000     0.000000     0.000000     0.000000
    2    -1.000000     0.000000     1.000000     0.000000     0.000000     0.000000     0.000000     0.000000
    3     1.000000   120.000000    -0.577350    -0.577350    -0.577350     0.000000     0.000000     0.000000
    4    -1.000000   120.000000    -0.577350    -0.577350    -0.577350     0.000000     0.000000     0.000000
    5     1.000000   120.000000     0.577350     0.577350     0.577350     0.000000     0.000000     0.000000
    6    -1.000000   120.000000     0.577350     0.577350     0.577350     0.000000     0.000000     0.000000
    7     1.000000   180.000000     0.000000    -0.707107     0.707107     0.000000     0.000000     0.000000
    8    -1.000000   180.000000     0.000000    -0.707107     0.707107     0.000000     0.000000     0.000000
    9     1.000000   180.000000     0.707107    -0.707107     0.000000     0.000000     0.000000     0.000000
   10    -1.000000   180.000000     0.707107    -0.707107     0.000000     0.000000     0.000000     0.000000
   11     1.000000   180.000000     0.707107     0.000000    -0.707107     0.000000     0.000000     0.000000
   12    -1.000000   180.000000     0.707107     0.000000    -0.707107     0.000000     0.000000     0.000000
   13     1.000000    90.000000     0.000000     0.000000    -1.000000    -0.500000     0.000000     0.000000
   14    -1.000000    90.000000     0.000000     0.000000    -1.000000    -0.500000     0.000000     0.000000
   15     1.000000   180.000000     0.000000     0.707107     0.707107    -0.500000     0.000000     0.000000
   16    -1.000000   180.000000     0.000000     0.707107     0.707107    -0.500000     0.000000     0.000000
   17     1.000000    90.000000     0.000000     1.000000     0.000000    -0.500000     0.000000     0.000000
   18    -1.000000    90.000000     0.000000     1.000000     0.000000    -0.500000     0.000000     0.000000
   19     1.000000   180.000000     0.000000     0.000000     1.000000     0.000000     0.000000    -0.500000
   20    -1.000000   180.000000     0.000000     0.000000     1.000000     0.000000     0.000000    -0.500000
   21     1.000000   120.000000    -0.577350     0.577350     0.577350     0.000000     0.000000    -0.500000
   22    -1.000000   120.000000    -0.577350     0.577350     0.577350     0.000000     0.000000    -0.500000
   23     1.000000   120.000000    -0.577350     0.577350    -0.577350     0.000000     0.000000    -0.500000
   24    -1.000000   120.000000    -0.577350     0.577350    -0.577350     0.000000     0.000000    -0.500000
   25     1.000000    90.000000     0.000000     0.000000     1.000000     0.000000    -0.500000     0.000000
   26    -1.000000    90.000000     0.000000     0.000000     1.000000     0.000000    -0.500000     0.000000
   27     1.000000    90.000000    -1.000000     0.000000     0.000000     0.000000    -0.500000     0.000000
   28    -1.000000    90.000000    -1.000000     0.000000     0.000000     0.000000    -0.500000     0.000000
   29     1.000000   180.000000     0.707107     0.000000     0.707107     0.000000    -0.500000     0.000000
   30    -1.000000   180.000000     0.707107     0.000000     0.707107     0.000000    -0.500000     0.000000
   31     1.000000   120.000000     0.577350    -0.577350     0.577350    -0.500000     0.000000     0.000000
   32    -1.000000   120.000000     0.577350    -0.577350     0.577350    -0.500000     0.000000     0.000000
   33     1.000000   120.000000    -0.577350    -0.577350     0.577350    -0.500000     0.000000     0.000000
   34    -1.000000   120.000000    -0.577350    -0.577350     0.577350    -0.500000     0.000000     0.000000
   35     1.000000   180.000000     1.000000     0.000000     0.000000    -0.500000     0.000000     0.000000
   36    -1.000000   180.000000     1.000000     0.000000     0.000000    -0.500000     0.000000     0.000000
   37     1.000000    90.000000     0.000000    -1.000000     0.000000     0.000000     0.000000    -0.500000
   38    -1.000000    90.000000     0.000000    -1.000000     0.000000     0.000000     0.000000    -0.500000
   39     1.000000   180.000000     0.707107     0.707107     0.000000     0.000000     0.000000    -0.500000
   40    -1.000000   180.000000     0.707107     0.707107     0.000000     0.000000     0.000000    -0.500000
   41     1.000000    90.000000     1.000000     0.000000     0.000000     0.000000     0.000000    -0.500000
   42    -1.000000    90.000000     1.000000     0.000000     0.000000     0.000000     0.000000    -0.500000
   43     1.000000   120.000000     0.577350    -0.577350    -0.577350     0.000000    -0.500000     0.000000
   44    -1.000000   120.000000     0.577350    -0.577350    -0.577350     0.000000    -0.500000     0.000000
   45     1.000000   180.000000     0.000000     1.000000     0.000000     0.000000    -0.500000     0.000000
   46    -1.000000   180.000000     0.000000     1.000000     0.000000     0.000000    -0.500000     0.000000
   47     1.000000   120.000000     0.577350     0.577350    -0.577350     0.000000    -0.500000     0.000000
   48    -1.000000   120.000000     0.577350     0.577350    -0.577350     0.000000    -0.500000     0.000000
 TETIRR: Found   7211 inequivalent tetrahedra from   329232

 Subroutine IBZKPT returns following result:

 Found   1440 irreducible k-points:

 Following reciprocal coordinates:
            Coordinates               Weight
  0.000000  0.000000  0.000000      1.000000
  0.026316  0.000000  0.000000      8.000000
  0.052632  0.000000  0.000000      8.000000
  0.078947  0.000000  0.000000      8.000000
  0.105263  0.000000  0.000000      8.000000
  0.131579  0.000000  0.000000      8.000000
  0.157895  0.000000  0.000000      8.000000
  0.184211  0.000000  0.000000      8.000000
  0.210526  0.000000  0.000000      8.000000
  0.236842  0.000000  0.000000      8.000000
  0.263158  0.000000  0.000000      8.000000
  0.289474  0.000000  0.000000      8.000000
  0.315789  0.000000  0.000000      8.000000
  0.342105  0.000000  0.000000      8.000000
  0.368421  0.000000  0.000000      8.000000
  0.394737  0.000000  0.000000      8.000000
  0.421053  0.000000  0.000000      8.000000
  0.447368  0.000000  0.000000      8.000000
  0.473684  0.000000  0.000000      8.000000
  0.500000  0.000000  0.000000      4.000000
  0.026316  0.026316  0.000000      6.000000
  0.052632  0.026316  0.000000     24.000000
  0.078947  0.026316  0.000000     24.000000
  0.105263  0.026316  0.000000     24.000000
  0.131579  0.026316  0.000000     24.000000
  0.157895  0.026316  0.000000     24.000000
  0.184211  0.026316  0.000000     24.000000
  0.210526  0.026316  0.000000     24.000000
  0.236842  0.026316  0.000000     24.000000
  0.263158  0.026316  0.000000     24.000000
  0.289474  0.026316  0.000000     24.000000
  0.315789  0.026316  0.000000     24.000000
  0.342105  0.026316  0.000000     24.000000
  0.368421  0.026316  0.000000     24.000000
  0.394737  0.026316  0.000000     24.000000
  0.421053  0.026316  0.000000     24.000000
  0.447368  0.026316  0.000000     24.000000
  0.473684  0.026316  0.000000     24.000000
  0.500000  0.026316  0.000000     24.000000
 -0.473684  0.026316  0.000000     24.000000
 -0.447368  0.026316  0.000000     24.000000
 -0.421053  0.026316  0.000000     24.000000
 -0.394737  0.026316  0.000000     24.000000
 -0.368421  0.026316  0.000000     24.000000
 -0.342105  0.026316  0.000000     24.000000
 -0.315789  0.026316  0.000000     24.000000
 -0.289474  0.026316  0.000000     24.000000
 -0.263158  0.026316  0.000000     24.000000
 -0.236842  0.026316  0.000000     24.000000
 -0.210526  0.026316  0.000000     24.000000
 -0.184211  0.026316  0.000000     24.000000
 -0.157895  0.026316  0.000000     24.000000
 -0.131579  0.026316  0.000000     24.000000
 -0.105263  0.026316  0.000000     24.000000
 -0.078947  0.026316  0.000000     24.000000
 -0.052632  0.026316  0.000000     24.000000
 -0.026316  0.026316  0.000000     12.000000
[...]
   0.18421053  0.00000000  0.00000000       0.000
   0.21052632  0.00000000  0.00000000       0.000
   0.23684211  0.00000000  0.00000000       0.000
   0.26315789  0.00000000  0.00000000       0.000
   0.28947368  0.00000000  0.00000000       0.000
   0.31578947  0.00000000  0.00000000       0.000
   0.34210526  0.00000000  0.00000000       0.000
   0.36842105  0.00000000  0.00000000       0.000
   0.39473684  0.00000000  0.00000000       0.000
   0.42105263  0.00000000  0.00000000       0.000
   0.44736842  0.00000000  0.00000000       0.000
   0.47368421  0.00000000  0.00000000       0.000
   0.50000000  0.00000000  0.00000000       0.000
   0.02631579  0.02631579  0.00000000       0.000
   0.05263158  0.02631579  0.00000000       0.000
   0.07894737  0.02631579  0.00000000       0.000
   0.10526316  0.02631579  0.00000000       0.000
   0.13157895  0.02631579  0.00000000       0.000
   0.15789474  0.02631579  0.00000000       0.000
   0.18421053  0.02631579  0.00000000       0.000
   0.21052632  0.02631579  0.00000000       0.000
   0.23684211  0.02631579  0.00000000       0.000
   0.26315789  0.02631579  0.00000000       0.000
   0.28947368  0.02631579  0.00000000       0.000
   0.31578947  0.02631579  0.00000000       0.000
   0.34210526  0.02631579  0.00000000       0.000
   0.36842105  0.02631579  0.00000000       0.000
   0.39473684  0.02631579  0.00000000       0.000
   0.42105263  0.02631579  0.00000000       0.000
   0.44736842  0.02631579  0.00000000       0.000
   0.47368421  0.02631579  0.00000000       0.000
   0.50000000  0.02631579  0.00000000       0.000
  -0.47368421  0.02631579  0.00000000       0.000
  -0.44736842  0.02631579  0.00000000       0.000
  -0.42105263  0.02631579  0.00000000       0.000
  -0.39473684  0.02631579  0.00000000       0.000
  -0.36842105  0.02631579  0.00000000       0.000
  -0.34210526  0.02631579  0.00000000       0.000
  -0.31578947  0.02631579  0.00000000       0.000
  -0.28947368  0.02631579  0.00000000       0.000
  -0.26315789  0.02631579  0.00000000       0.000
  -0.23684211  0.02631579  0.00000000       0.000
  -0.21052632  0.02631579  0.00000000       0.000
  -0.18421053  0.02631579  0.00000000       0.000
  -0.15789474  0.02631579  0.00000000       0.000
  -0.13157895  0.02631579  0.00000000       0.000
  -0.10526316  0.02631579  0.00000000       0.000
  -0.07894737  0.02631579  0.00000000       0.000
  -0.05263158  0.02631579  0.00000000       0.000
  -0.02631579  0.02631579  0.00000000       0.000
   0.05263158  0.05263158  0.00000000       0.000
   0.07894737  0.05263158  0.00000000       0.000
   0.10526316  0.05263158  0.00000000       0.000
[...]
  -0.34210526  0.42105263  0.21052632       0.001
  -0.31578947  0.42105263  0.21052632       0.001
  -0.28947368  0.42105263  0.21052632       0.000
  -0.34210526  0.44736842  0.21052632       0.000
  -0.31578947  0.44736842  0.21052632       0.001
  -0.28947368  0.44736842  0.21052632       0.001
  -0.26315789  0.44736842  0.21052632       0.001
  -0.23684211  0.44736842  0.21052632       0.000
  -0.31578947  0.47368421  0.21052632       0.000
  -0.28947368  0.47368421  0.21052632       0.001
  -0.26315789  0.47368421  0.21052632       0.000
  -0.28947368  0.50000000  0.21052632       0.000
  -0.28947368  0.47368421  0.23684211       0.000
  -0.26315789  0.47368421  0.23684211       0.000
  -0.26315789  0.50000000  0.23684211       0.000

 position of ions in fractional coordinates (direct lattice)
   0.87500000  0.87500000  0.87500000
   0.12500000  0.12500000  0.12500000

 position of ions in cartesian coordinates  (Angst):
   3.19637500  3.19637500  3.19637500
   0.45662500  0.45662500  0.45662500

 k-point   1 :   0.0000 0.0000 0.0000  plane waves:     609
 k-point   2 :   0.0263 0.0000 0.0000  plane waves:     609
 k-point   3 :   0.0526 0.0000 0.0000  plane waves:     615
 k-point   4 :   0.0789 0.0000 0.0000  plane waves:     621
 k-point   5 :   0.1053 0.0000 0.0000  plane waves:     618
 k-point   6 :   0.1316 0.0000 0.0000  plane waves:     618
 k-point   7 :   0.1579 0.0000 0.0000  plane waves:     619
 k-point   8 :   0.1842 0.0000 0.0000  plane waves:     622
 k-point   9 :   0.2105 0.0000 0.0000  plane waves:     628
 k-point  10 :   0.2368 0.0000 0.0000  plane waves:     616
 k-point  11 :   0.2632 0.0000 0.0000  plane waves:     619
 k-point  12 :   0.2895 0.0000 0.0000  plane waves:     613
 k-point  13 :   0.3158 0.0000 0.0000  plane waves:     613
 k-point  14 :   0.3421 0.0000 0.0000  plane waves:     613
 k-point  15 :   0.3684 0.0000 0.0000  plane waves:     613
 k-point  16 :   0.3947 0.0000 0.0000  plane waves:     613
 k-point  17 :   0.4211 0.0000 0.0000  plane waves:     622
 k-point  18 :   0.4474 0.0000 0.0000  plane waves:     619
 k-point  19 :   0.4737 0.0000 0.0000  plane waves:     622
 k-point  20 :   0.5000 0.0000 0.0000  plane waves:     628
 k-point  21 :   0.0263 0.0263 0.0000  plane waves:     609
 k-point  22 :   0.0526 0.0263 0.0000  plane waves:     615
 k-point  23 :   0.0789 0.0263 0.0000  plane waves:     620
 k-point  24 :   0.1053 0.0263 0.0000  plane waves:     620
 k-point  25 :   0.1316 0.0263 0.0000  plane waves:     617
 k-point  26 :   0.1579 0.0263 0.0000  plane waves:     619
 k-point  27 :   0.1842 0.0263 0.0000  plane waves:     619
 k-point  28 :   0.2105 0.0263 0.0000  plane waves:     624
 k-point  29 :   0.2368 0.0263 0.0000  plane waves:     622
 k-point  30 :   0.2632 0.0263 0.0000  plane waves:     620
 k-point  31 :   0.2895 0.0263 0.0000  plane waves:     614
 k-point  32 :   0.3158 0.0263 0.0000  plane waves:     613
 k-point  33 :   0.3421 0.0263 0.0000  plane waves:     613
 k-point  34 :   0.3684 0.0263 0.0000  plane waves:     613
 k-point  35 :   0.3947 0.0263 0.0000  plane waves:     614
 k-point  36 :   0.4211 0.0263 0.0000  plane waves:     618
 k-point  37 :   0.4474 0.0263 0.0000  plane waves:     622
 k-point  38 :   0.4737 0.0263 0.0000  plane waves:     621
 k-point  39 :   0.5000 0.0263 0.0000  plane waves:     621
 k-point  40 :  -0.4737 0.0263 0.0000  plane waves:     621
 k-point  41 :  -0.4474 0.0263 0.0000  plane waves:     619
 k-point  42 :  -0.4211 0.0263 0.0000  plane waves:     623
 k-point  43 :  -0.3947 0.0263 0.0000  plane waves:     616
 k-point  44 :  -0.3684 0.0263 0.0000  plane waves:     616
 k-point  45 :  -0.3421 0.0263 0.0000  plane waves:     613
 k-point  46 :  -0.3158 0.0263 0.0000  plane waves:     613
 k-point  47 :  -0.2895 0.0263 0.0000  plane waves:     615
 k-point  48 :  -0.2632 0.0263 0.0000  plane waves:     617
 k-point  49 :  -0.2368 0.0263 0.0000  plane waves:     621
 k-point  50 :  -0.2105 0.0263 0.0000  plane waves:     621
 k-point  51 :  -0.1842 0.0263 0.0000  plane waves:     621
 k-point  52 :  -0.1579 0.0263 0.0000  plane waves:     620
 k-point  53 :  -0.1316 0.0263 0.0000  plane waves:     617
 k-point  54 :  -0.1053 0.0263 0.0000  plane waves:     620
 k-point  55 :  -0.0789 0.0263 0.0000  plane waves:     621
 k-point  56 :  -0.0526 0.0263 0.0000  plane waves:     619
 k-point  57 :  -0.0263 0.0263 0.0000  plane waves:     614
 k-point  58 :   0.0526 0.0526 0.0000  plane waves:     617
 k-point  59 :   0.0789 0.0526 0.0000  plane waves:     619
 k-point  60 :   0.1053 0.0526 0.0000  plane waves:     622
[...]
 k-point *** :  -0.3421 0.4211 0.2105  plane waves:     631
 k-point *** :  -0.3158 0.4211 0.2105  plane waves:     630
 k-point *** :  -0.2895 0.4211 0.2105  plane waves:     630
 k-point *** :  -0.3421 0.4474 0.2105  plane waves:     626
 k-point *** :  -0.3158 0.4474 0.2105  plane waves:     628
 k-point *** :  -0.2895 0.4474 0.2105  plane waves:     629
 k-point *** :  -0.2632 0.4474 0.2105  plane waves:     629
 k-point *** :  -0.2368 0.4474 0.2105  plane waves:     630
 k-point *** :  -0.3158 0.4737 0.2105  plane waves:     632
 k-point *** :  -0.2895 0.4737 0.2105  plane waves:     628
 k-point *** :  -0.2632 0.4737 0.2105  plane waves:     626
 k-point *** :  -0.2895 0.5000 0.2105  plane waves:     632
 k-point *** :  -0.2895 0.4737 0.2368  plane waves:     626
 k-point *** :  -0.2632 0.4737 0.2368  plane waves:     626
 k-point *** :  -0.2632 0.5000 0.2368  plane waves:     624

 maximum and minimum number of plane-waves per node :        68       52

 maximum number of plane-waves:       640
 maximum index in each direction:
   IXMAX=    6   IYMAX=    5   IZMAX=    5
   IXMIN=   -6   IYMIN=   -6   IZMIN=   -6

 parallel 3D FFT for wavefunctions:
    minimum data exchange during FFTs selected (reduces bandwidth)
 parallel 3D FFT for charge:
    minimum data exchange during FFTs selected (reduces bandwidth)

 Broyden mixing: mesh for mixing (old mesh)
   NGX = 11   NGY = 11   NGZ = 11
  (NGX  = 48   NGY  = 48   NGZ  = 48)
  gives a total of   1331 points

 initial charge density was supplied:
 charge density of overlapping atoms calculated
 number of electron       8.0000000 magnetization
 keeping initial charge density in first step

 Maximum index for augmentation-charges         5582 (set IRDMAX)

 First call to EWALD:  gamma=   0.770
 Maximum number of real-space cells 3x 3x 3
 Maximum number of reciprocal cells 3x 3x 3

--------------------------------------- Iteration      1(   1)  ---------------------------------------

 BZINTS: Fermi energy:   16.663924;    8.000000 electrons
         Band energy: 0.109628E+02;  BLOECHL correction:   -0.152725

 eigenvalue-minimisations  : 23320
 total energy-change (2. order) : 0.8588269E+00  (-0.6152795E+03)
 number of electron       8.0000000 magnetization
 augmentation part        8.0000000 magnetization

 Free energy of the ion-electron system (eV)
  alpha Z        PSCENC =        26.96256296
  Ewald energy   TEWEN  =      -339.74813588
  -Hartree energ DENC   =       -19.22325968
  -exchange      EXHF   =         0.00000000
  -V(xc)+E(xc)   XCENC  =        31.82367030
  PAW double counting   =       211.93111631     -216.15880412
  entropy T*S    EENTRO =         0.00000000
  eigenvalues    EBANDS =        10.96283008
  atomic energy  EATOM  =       294.30884690
  Solvation  Ediel_sol  =         0.00000000
  free energy    TOTEN  =         0.85882688 eV

  energy without entropy =        0.85882688  energy(sigma->0) =        0.85882688

[...]

 BZINTS: Fermi energy:   11.646486;    8.000000 electrons
         Band energy:-0.115462E+02;  BLOECHL correction:    0.000000

 eigenvalue-minimisations  : 37544
 total energy-change (2. order) :-0.2250899E+02  (-0.2228551E+02)
 number of electron       8.0000000 magnetization
 augmentation part        8.0000000 magnetization

[...]

 Broyden mixing:
  rms(total) = 0.46520E+00    rms(broyden)= 0.83982E+03
  rms(prec ) = 0.85439E+01
  weight for this iteration     100.00
  WARNING: grid for Broyden might be to small

[...]

 eigenvalues of (default mixing * dielectric matrix)
  average eigenvalue GAMMA=   0.6248
  0.6248

[...]

 eigenvalue-minimisations  : 32560
 total energy-change (2. order) : 0.2787178E-01  (-0.1394679E-01)
 number of electron       8.0000000 magnetization
 augmentation part        0.1684195 magnetization

[...]

 Broyden mixing:
  rms(total) = 0.58242E-04    rms(broyden)= 0.23838E-02
  rms(prec ) = 0.92294E-04
  weight for this iteration     100.00
  WARNING: grid for Broyden might be to small

 eigenvalues of (default mixing * dielectric matrix)
  average eigenvalue GAMMA=   1.1870
  2.6570  2.2253  1.4112  1.0014  0.7815  0.6914  0.6246  0.6452  0.6452

[...]

--------------------------------------- Iteration      1(  15)  ---------------------------------------

[...]

 eigenvalue-minimisations  : 11520
 total energy-change (2. order) :-0.2070379E-07  (-0.2858937E-09)
 number of electron       8.0000000 magnetization
 augmentation part        0.1686333 magnetization

 Free energy of the ion-electron system (eV)
  alpha Z        PSCENC =        26.96256296
  Ewald energy   TEWEN  =      -339.74813588
  -Hartree energ DENC   =       -27.30693585
  -exchange      EXHF   =         0.00000000
  -V(xc)+E(xc)   XCENC  =        33.54522112
  PAW double counting   =       730.06565025     -734.35665875
  entropy T*S    EENTRO =         0.00000000
  eigenvalues    EBANDS =        -3.05961531
  atomic energy  EATOM  =       294.30884690
  Solvation  Ediel_sol  =         0.00000000
  free energy    TOTEN  =       -19.58906454 eV

  energy without entropy =      -19.58906454  energy(sigma->0) =      -19.58906454

 average (electrostatic) potential at core
  the test charge radii are     0.6991
  (the norm of the test charge is              1.0000)
       1 -48.4528       2 -48.4528

 E-fermi :  12.8554     XC(G=0): -13.8663     alpha+bet :-16.4479

 k-point     1 :       0.0000    0.0000    0.0000
  band No.  band energies     occupation
      1     -13.0304      2.00000
      2       8.6939      2.00000
      3       8.6939      2.00000
      4       8.6939      2.00000
      5      14.3334      0.00000
      6      14.3334      0.00000
      7      14.3334      0.00000
      8      20.8338      0.00000

[...]

 k-point  1440 :      -0.2632    0.5000    0.2368
  band No.  band energies     occupation
      1      -3.7255      2.00000
      2      -3.7255      2.00000
      3       0.6103      2.00000
      4       0.6103      2.00000
      5      19.4055      0.00000
      6      19.4055      0.00000
      7      20.8605      0.00000
      8      20.8605      0.00000

 soft charge-density along one line, spin component           1
         0         1         2         3         4         5         6         7         8         9
 total charge-density along one line

------------------------ aborting loop because EDIFF is reached ----------------------------------------

 total charge

# of ion       s       p       d       tot
    1        0.832   1.665   0.000   2.497
    2        0.832   1.665   0.000   2.497
tot          1.664   3.329   0.000   4.993

  FORCE on cell =-STRESS in cart. coord.  units (eV):
  Direction    XX          YY          ZZ          XY          YZ          ZX
  Alpha Z    26.96256    26.96256    26.96256
  Ewald    -113.24943  -113.24943  -113.24943    -0.00000     0.00000    -0.00000
  Hartree     9.10232     9.10232     9.10232     0.00000     0.00000     0.00000
  E(xc)     -29.98344   -30.23014   -30.02213     0.14924    -0.03093     0.06655
  Local     -13.05286   -13.05286   -13.05286    -0.00000    -0.00000    -0.00000
  n-local    -5.12115    -4.51948    -5.36428    -0.62999     0.14948    -0.07610
  augment    -0.81571    -0.81571    -0.81571     0.00000     0.00000     0.00000
  Kinetic   126.73460   120.97007   123.89821     5.19334    -1.45872     1.89352
  Fock        0.00000     0.00000     0.00000     0.00000     0.00000     0.00000
  Total      -2.26570    -2.26570    -2.26570     0.00000    -0.00000     0.00000
  in kB    -297.86822  -297.86822  -297.86822     0.00000    -0.00000     0.00000

 VOLUME and BASIS-vectors are now :
  energy-cutoff  :      800.00
  volume of cell :       12.19
      direct lattice vectors                 reciprocal lattice vectors
     0.000000000  1.826500000  1.826500000    -0.273747605  0.273747605  0.273747605
     1.826500000  0.000000000  1.826500000     0.273747605 -0.273747605  0.273747605
     1.826500000  1.826500000  0.000000000     0.273747605  0.273747605 -0.273747605

  length of vectors
     2.583061072  2.583061072  2.583061072     0.474144760  0.474144760  0.474144760

 FORCES acting on ions
    electron-ion (+dipol)            ewald-force                    non-local-force                 convergence-correction
   -.757E-08 -.757E-08 -.587E-08   -.757E-14 -.216E-14 -.192E-14   -.194E-15 -.194E-15 -.520E-16   0.146E-08 0.146E-08 0.146E-08
   0.757E-08 0.757E-08 0.587E-08   0.820E-14 0.251E-14 0.186E-14   0.229E-15 0.132E-15 0.149E-15   -.146E-08 -.146E-08 -.146E-08
   0.174E-12 0.425E-12 0.145E-12   0.628E-15 0.348E-15 -.681E-16   0.347E-16 -.625E-16 0.971E-16   -.266E-14 -.366E-14 -.220E-14

 POSITION                                       TOTAL-FORCE (eV/Angst)
      3.19638      3.19638      3.19638         0.000000     -0.000000     -0.000000
      0.45663      0.45663      0.45663        -0.000000      0.000000      0.000000
    total drift:                                0.000000      0.000000      0.000000

  FREE ENERGIE OF THE ION-ELECTRON SYSTEM (eV)
  free  energy   TOTEN  =       -19.58906454 eV

  energy  without entropy=      -19.58906454  energy(sigma->0) =      -19.58906454

 total charge

# of ion       s       p       d       tot
    1        0.832   1.665   0.000   2.497
    2        0.832   1.665   0.000   2.497
tot          1.664   3.329   0.000   4.993

 BZINTS: Fermi energy:   12.855420;    8.000000 electrons
         Band energy:-0.305962E+01;  BLOECHL correction:    0.000000