 vasp.6.1.2 22Jul20 (build Mar 11 2021 17:42:27) complex

 executed on             LinuxIFC date 2021.03.19  16:24:58

 INCAR:
 POTCAR:    PAW_PBE C 08Apr2002
 POTCAR:    PAW_PBE C 08Apr2002
   VRHFIN =C: s2p2

   TITEL  = PAW_PBE C 08Apr2002
   POMASS =   12.011; ZVAL   =    4.000    mass and valenz
   ENMAX  =  400.000; ENMIN  =  300.000 eV

  PAW_PBE C 08Apr2002                   :

 POSCAR: carbon
  positions in direct lattice

 METAGGA = R2SCA    LMAXTAU =  6    LMIXTAU =  T

 ion  position               nearest neighbor table
   1  0.875  0.875  0.875-   2 1.45   2 1.45   2 1.45   2 1.45
   2  0.125  0.125  0.125-   1 1.45   1 1.45   1 1.45   1 1.45

  LATTYP: Found a face centered cubic cell.
 ALAT       =     3.3530000000

  Lattice vectors:

 A1 = (   0.0000000000,   1.6765000000,   1.6765000000)
 A2 = (   1.6765000000,   0.0000000000,   1.6765000000)
 A3 = (   1.6765000000,   1.6765000000,   0.0000000000)

Analysis of symmetry for initial positions (statically):
 Subroutine PRICEL returns:
 Original cell was already a primitive cell.

 Routine SETGRP: Setting up the symmetry group for a
 face centered cubic supercell.

 Subroutine GETGRP returns: Found 48 space group operations
 (whereof 12 operations were pure point group operations)
 out of a pool of 48 trial point group operations.

The static configuration has the point symmetry D_3d.
 The point group associated with its full space group is O_h .

Analysis of symmetry for dynamics (positions and initial velocities):
 Subroutine PRICEL returns:
 Original cell was already a primitive cell.

 Routine SETGRP: Setting up the symmetry group for a
 face centered cubic supercell.

 Subroutine GETGRP returns: Found 48 space group operations
 (whereof 12 operations were pure point group operations)
 out of a pool of 48 trial point group operations.

The dynamic configuration has the point symmetry D_3d.
 The point group associated with its full space group is O_h .

 Subroutine INISYM returns: Found 48 space group operations
 (whereof 12 operations are pure point group operations),
 and found     1 'primitive' translations

                                     Primitive cell

  volume of cell :       9.4241

  direct lattice vectors                    reciprocal lattice vectors
     0.000000000  1.676500000  1.676500000    -0.298240382  0.298240382  0.298240382
     1.676500000  0.000000000  1.676500000     0.298240382 -0.298240382  0.298240382
     1.676500000  1.676500000  0.000000000     0.298240382  0.298240382 -0.298240382

  length of vectors
     2.370929037  2.370929037  2.370929037     0.516567494  0.516567494  0.516567494

  position of ions in fractional coordinates (direct lattice)
     0.875000000  0.875000000  0.875000000
     0.125000000  0.125000000  0.125000000

  ion indices of the primitive-cell ions
   primitive index   ion index
                 1           1
                 2           2

Automatic generation of k-mesh.
 generate k-points for:   41   41   41
Space group operators:
 irot       det(A)        alpha          n_x          n_y          n_z        tau_x        tau_y        tau_z
    1     1.000000     0.000000     1.000000     0.000000     0.000000     0.000000     0.000000     0.000000
    2    -1.000000     0.000000     1.000000     0.000000     0.000000     0.000000     0.000000     0.000000
    3     1.000000   120.000000    -0.577350    -0.577350    -0.577350     0.000000     0.000000     0.000000
    4    -1.000000   120.000000    -0.577350    -0.577350    -0.577350     0.000000     0.000000     0.000000
    5     1.000000   120.000000     0.577350     0.577350     0.577350     0.000000     0.000000     0.000000
    6    -1.000000   120.000000     0.577350     0.577350     0.577350     0.000000     0.000000     0.000000
    7     1.000000   180.000000     0.000000    -0.707107     0.707107     0.000000     0.000000     0.000000
    8    -1.000000   180.000000     0.000000    -0.707107     0.707107     0.000000     0.000000     0.000000
    9     1.000000   180.000000     0.707107    -0.707107     0.000000     0.000000     0.000000     0.000000
   10    -1.000000   180.000000     0.707107    -0.707107     0.000000     0.000000     0.000000     0.000000
   11     1.000000   180.000000     0.707107     0.000000    -0.707107     0.000000     0.000000     0.000000
   12    -1.000000   180.000000     0.707107     0.000000    -0.707107     0.000000     0.000000     0.000000
   13     1.000000    90.000000     0.000000     0.000000    -1.000000    -0.500000     0.000000     0.000000
   14    -1.000000    90.000000     0.000000     0.000000    -1.000000    -0.500000     0.000000     0.000000
   15     1.000000   180.000000     0.000000     0.707107     0.707107    -0.500000     0.000000     0.000000
   16    -1.000000   180.000000     0.000000     0.707107     0.707107    -0.500000     0.000000     0.000000
   17     1.000000    90.000000     0.000000     1.000000     0.000000    -0.500000     0.000000     0.000000
   18    -1.000000    90.000000     0.000000     1.000000     0.000000    -0.500000     0.000000     0.000000
   19     1.000000   180.000000     0.000000     0.000000     1.000000     0.000000     0.000000    -0.500000
   20    -1.000000   180.000000     0.000000     0.000000     1.000000     0.000000     0.000000    -0.500000
   21     1.000000   120.000000    -0.577350     0.577350     0.577350     0.000000     0.000000    -0.500000
   22    -1.000000   120.000000    -0.577350     0.577350     0.577350     0.000000     0.000000    -0.500000
   23     1.000000   120.000000    -0.577350     0.577350    -0.577350     0.000000     0.000000    -0.500000
   24    -1.000000   120.000000    -0.577350     0.577350    -0.577350     0.000000     0.000000    -0.500000
   25     1.000000    90.000000     0.000000     0.000000     1.000000     0.000000    -0.500000     0.000000
   26    -1.000000    90.000000     0.000000     0.000000     1.000000     0.000000    -0.500000     0.000000
   27     1.000000    90.000000    -1.000000     0.000000     0.000000     0.000000    -0.500000     0.000000
   28    -1.000000    90.000000    -1.000000     0.000000     0.000000     0.000000    -0.500000     0.000000
   29     1.000000   180.000000     0.707107     0.000000     0.707107     0.000000    -0.500000     0.000000
   30    -1.000000   180.000000     0.707107     0.000000     0.707107     0.000000    -0.500000     0.000000
   31     1.000000   120.000000     0.577350    -0.577350     0.577350    -0.500000     0.000000     0.000000
   32    -1.000000   120.000000     0.577350    -0.577350     0.577350    -0.500000     0.000000     0.000000
   33     1.000000   120.000000    -0.577350    -0.577350     0.577350    -0.500000     0.000000     0.000000
   34    -1.000000   120.000000    -0.577350    -0.577350     0.577350    -0.500000     0.000000     0.000000
   35     1.000000   180.000000     1.000000     0.000000     0.000000    -0.500000     0.000000     0.000000
   36    -1.000000   180.000000     1.000000     0.000000     0.000000    -0.500000     0.000000     0.000000
   37     1.000000    90.000000     0.000000    -1.000000     0.000000     0.000000     0.000000    -0.500000
   38    -1.000000    90.000000     0.000000    -1.000000     0.000000     0.000000     0.000000    -0.500000
   39     1.000000   180.000000     0.707107     0.707107     0.000000     0.000000     0.000000    -0.500000
   40    -1.000000   180.000000     0.707107     0.707107     0.000000     0.000000     0.000000    -0.500000
   41     1.000000    90.000000     1.000000     0.000000     0.000000     0.000000     0.000000    -0.500000
   42    -1.000000    90.000000     1.000000     0.000000     0.000000     0.000000     0.000000    -0.500000
   43     1.000000   120.000000     0.577350    -0.577350    -0.577350     0.000000    -0.500000     0.000000
   44    -1.000000   120.000000     0.577350    -0.577350    -0.577350     0.000000    -0.500000     0.000000
   45     1.000000   180.000000     0.000000     1.000000     0.000000     0.000000    -0.500000     0.000000
   46    -1.000000   180.000000     0.000000     1.000000     0.000000     0.000000    -0.500000     0.000000
   47     1.000000   120.000000     0.577350     0.577350    -0.577350     0.000000    -0.500000     0.000000
   48    -1.000000   120.000000     0.577350     0.577350    -0.577350     0.000000    -0.500000     0.000000
 TETIRR: Found   9051 inequivalent tetrahedra from   413526

 Subroutine IBZKPT returns following result:

 Found   1771 irreducible k-points:

 Following reciprocal coordinates:
            Coordinates               Weight
  0.000000  0.000000  0.000000      1.000000
  0.024390  0.000000  0.000000      8.000000
  0.048780  0.000000  0.000000      8.000000
  0.073171  0.000000  0.000000      8.000000
  0.097561  0.000000  0.000000      8.000000
  0.121951  0.000000  0.000000      8.000000
  0.146341  0.000000  0.000000      8.000000
  0.170732  0.000000  0.000000      8.000000
  0.195122  0.000000  0.000000      8.000000
  0.219512  0.000000  0.000000      8.000000
  0.243902  0.000000  0.000000      8.000000
  0.268293  0.000000  0.000000      8.000000
  0.292683  0.000000  0.000000      8.000000
  0.317073  0.000000  0.000000      8.000000
  0.341463  0.000000  0.000000      8.000000
  0.365854  0.000000  0.000000      8.000000
  0.390244  0.000000  0.000000      8.000000
  0.414634  0.000000  0.000000      8.000000
  0.439024  0.000000  0.000000      8.000000
  0.463415  0.000000  0.000000      8.000000
  0.487805  0.000000  0.000000      8.000000
  0.024390  0.024390  0.000000      6.000000
  0.048780  0.024390  0.000000     24.000000
  0.073171  0.024390  0.000000     24.000000
  0.097561  0.024390  0.000000     24.000000
  0.121951  0.024390  0.000000     24.000000
  0.146341  0.024390  0.000000     24.000000
  0.170732  0.024390  0.000000     24.000000
  0.195122  0.024390  0.000000     24.000000
  0.219512  0.024390  0.000000     24.000000
  0.243902  0.024390  0.000000     24.000000
  0.268293  0.024390  0.000000     24.000000
  0.292683  0.024390  0.000000     24.000000
  0.317073  0.024390  0.000000     24.000000
  0.341463  0.024390  0.000000     24.000000
  0.365854  0.024390  0.000000     24.000000
  0.390244  0.024390  0.000000     24.000000
  0.414634  0.024390  0.000000     24.000000
  0.439024  0.024390  0.000000     24.000000
  0.463415  0.024390  0.000000     24.000000
  0.487805  0.024390  0.000000     24.000000
 -0.487805  0.024390  0.000000     24.000000
 -0.463415  0.024390  0.000000     24.000000
 -0.439024  0.024390  0.000000     24.000000
 -0.414634  0.024390  0.000000     24.000000
 -0.390244  0.024390  0.000000     24.000000
 -0.365854  0.024390  0.000000     24.000000
 -0.341463  0.024390  0.000000     24.000000
 -0.317073  0.024390  0.000000     24.000000
 -0.292683  0.024390  0.000000     24.000000
 -0.268293  0.024390  0.000000     24.000000
 -0.243902  0.024390  0.000000     24.000000
 -0.219512  0.024390  0.000000     24.000000
 -0.195122  0.024390  0.000000     24.000000
 -0.170732  0.024390  0.000000     24.000000
 -0.146341  0.024390  0.000000     24.000000
 -0.121951  0.024390  0.000000     24.000000
[...]
   0.09756098  0.00000000  0.00000000       0.000
   0.12195122  0.00000000  0.00000000       0.000
   0.14634146  0.00000000  0.00000000       0.000
   0.17073171  0.00000000  0.00000000       0.000
   0.19512195  0.00000000  0.00000000       0.000
   0.21951220  0.00000000  0.00000000       0.000
   0.24390244  0.00000000  0.00000000       0.000
   0.26829268  0.00000000  0.00000000       0.000
   0.29268293  0.00000000  0.00000000       0.000
   0.31707317  0.00000000  0.00000000       0.000
   0.34146341  0.00000000  0.00000000       0.000
   0.36585366  0.00000000  0.00000000       0.000
   0.39024390  0.00000000  0.00000000       0.000
   0.41463415  0.00000000  0.00000000       0.000
   0.43902439  0.00000000  0.00000000       0.000
   0.46341463  0.00000000  0.00000000       0.000
   0.48780488  0.00000000  0.00000000       0.000
   0.02439024  0.02439024  0.00000000       0.000
   0.04878049  0.02439024  0.00000000       0.000
   0.07317073  0.02439024  0.00000000       0.000
   0.09756098  0.02439024  0.00000000       0.000
   0.12195122  0.02439024  0.00000000       0.000
   0.14634146  0.02439024  0.00000000       0.000
   0.17073171  0.02439024  0.00000000       0.000
   0.19512195  0.02439024  0.00000000       0.000
   0.21951220  0.02439024  0.00000000       0.000
   0.24390244  0.02439024  0.00000000       0.000
   0.26829268  0.02439024  0.00000000       0.000
   0.29268293  0.02439024  0.00000000       0.000
   0.31707317  0.02439024  0.00000000       0.000
   0.34146341  0.02439024  0.00000000       0.000
   0.36585366  0.02439024  0.00000000       0.000
   0.39024390  0.02439024  0.00000000       0.000
   0.41463415  0.02439024  0.00000000       0.000
   0.43902439  0.02439024  0.00000000       0.000
   0.46341463  0.02439024  0.00000000       0.000
   0.48780488  0.02439024  0.00000000       0.000
  -0.48780488  0.02439024  0.00000000       0.000
  -0.46341463  0.02439024  0.00000000       0.000
  -0.43902439  0.02439024  0.00000000       0.000
  -0.41463415  0.02439024  0.00000000       0.000
  -0.39024390  0.02439024  0.00000000       0.000
  -0.36585366  0.02439024  0.00000000       0.000
  -0.34146341  0.02439024  0.00000000       0.000
  -0.31707317  0.02439024  0.00000000       0.000
  -0.29268293  0.02439024  0.00000000       0.000
  -0.26829268  0.02439024  0.00000000       0.000
  -0.24390244  0.02439024  0.00000000       0.000
  -0.21951220  0.02439024  0.00000000       0.000
  -0.19512195  0.02439024  0.00000000       0.000
  -0.17073171  0.02439024  0.00000000       0.000
  -0.14634146  0.02439024  0.00000000       0.000
  -0.12195122  0.02439024  0.00000000       0.000
  -0.09756098  0.02439024  0.00000000       0.000
  -0.07317073  0.02439024  0.00000000       0.000
  -0.04878049  0.02439024  0.00000000       0.000
[...]
  -0.31707317  0.46341463  0.19512195       0.001
  -0.29268293  0.46341463  0.19512195       0.001
  -0.26829268  0.46341463  0.19512195       0.000
  -0.31707317  0.48780488  0.19512195       0.000
  -0.29268293  0.48780488  0.19512195       0.000
  -0.34146341  0.43902439  0.21951220       0.000
  -0.31707317  0.43902439  0.21951220       0.001
  -0.29268293  0.43902439  0.21951220       0.001
  -0.31707317  0.46341463  0.21951220       0.000
  -0.29268293  0.46341463  0.21951220       0.001
  -0.26829268  0.46341463  0.21951220       0.001
  -0.24390244  0.46341463  0.21951220       0.000
  -0.29268293  0.48780488  0.21951220       0.000
  -0.26829268  0.48780488  0.21951220       0.000
  -0.26829268  0.48780488  0.24390244       0.000

 position of ions in fractional coordinates (direct lattice)
   0.87500000  0.87500000  0.87500000
   0.12500000  0.12500000  0.12500000

 position of ions in cartesian coordinates  (Angst):
   2.93387500  2.93387500  2.93387500
   0.41912500  0.41912500  0.41912500

 k-point   1 :   0.0000 0.0000 0.0000  plane waves:     531
 k-point   2 :   0.0244 0.0000 0.0000  plane waves:     531
 k-point   3 :   0.0488 0.0000 0.0000  plane waves:     516
 k-point   4 :   0.0732 0.0000 0.0000  plane waves:     513
 k-point   5 :   0.0976 0.0000 0.0000  plane waves:     507
 k-point   6 :   0.1220 0.0000 0.0000  plane waves:     507
 k-point   7 :   0.1463 0.0000 0.0000  plane waves:     495
 k-point   8 :   0.1707 0.0000 0.0000  plane waves:     489
 k-point   9 :   0.1951 0.0000 0.0000  plane waves:     489
 k-point  10 :   0.2195 0.0000 0.0000  plane waves:     489
 k-point  11 :   0.2439 0.0000 0.0000  plane waves:     483
 k-point  12 :   0.2683 0.0000 0.0000  plane waves:     483
 k-point  13 :   0.2927 0.0000 0.0000  plane waves:     489
 k-point  14 :   0.3171 0.0000 0.0000  plane waves:     492
 k-point  15 :   0.3415 0.0000 0.0000  plane waves:     492
 k-point  16 :   0.3659 0.0000 0.0000  plane waves:     492
 k-point  17 :   0.3902 0.0000 0.0000  plane waves:     483
 k-point  18 :   0.4146 0.0000 0.0000  plane waves:     477
 k-point  19 :   0.4390 0.0000 0.0000  plane waves:     477
 k-point  20 :   0.4634 0.0000 0.0000  plane waves:     477
 k-point  21 :   0.4878 0.0000 0.0000  plane waves:     476
 k-point  22 :   0.0244 0.0244 0.0000  plane waves:     531
 k-point  23 :   0.0488 0.0244 0.0000  plane waves:     516
 k-point  24 :   0.0732 0.0244 0.0000  plane waves:     512
 k-point  25 :   0.0976 0.0244 0.0000  plane waves:     506
 k-point  26 :   0.1220 0.0244 0.0000  plane waves:     503
 k-point  27 :   0.1463 0.0244 0.0000  plane waves:     501
 k-point  28 :   0.1707 0.0244 0.0000  plane waves:     495
 k-point  29 :   0.1951 0.0244 0.0000  plane waves:     491
 k-point  30 :   0.2195 0.0244 0.0000  plane waves:     487
 k-point  31 :   0.2439 0.0244 0.0000  plane waves:     485
 k-point  32 :   0.2683 0.0244 0.0000  plane waves:     484
 k-point  33 :   0.2927 0.0244 0.0000  plane waves:     485
 k-point  34 :   0.3171 0.0244 0.0000  plane waves:     492
 k-point  35 :   0.3415 0.0244 0.0000  plane waves:     492
 k-point  36 :   0.3659 0.0244 0.0000  plane waves:     490
 k-point  37 :   0.3902 0.0244 0.0000  plane waves:     484
 k-point  38 :   0.4146 0.0244 0.0000  plane waves:     479
 k-point  39 :   0.4390 0.0244 0.0000  plane waves:     481
 k-point  40 :   0.4634 0.0244 0.0000  plane waves:     480
 k-point  41 :   0.4878 0.0244 0.0000  plane waves:     476
 k-point  42 :  -0.4878 0.0244 0.0000  plane waves:     476
 k-point  43 :  -0.4634 0.0244 0.0000  plane waves:     477
 k-point  44 :  -0.4390 0.0244 0.0000  plane waves:     480
 k-point  45 :  -0.4146 0.0244 0.0000  plane waves:     481
 k-point  46 :  -0.3902 0.0244 0.0000  plane waves:     481
 k-point  47 :  -0.3659 0.0244 0.0000  plane waves:     485
 k-point  48 :  -0.3415 0.0244 0.0000  plane waves:     492
 k-point  49 :  -0.3171 0.0244 0.0000  plane waves:     492
 k-point  50 :  -0.2927 0.0244 0.0000  plane waves:     490
 k-point  51 :  -0.2683 0.0244 0.0000  plane waves:     485
 k-point  52 :  -0.2439 0.0244 0.0000  plane waves:     483
 k-point  53 :  -0.2195 0.0244 0.0000  plane waves:     487
 k-point  54 :  -0.1951 0.0244 0.0000  plane waves:     489
 k-point  55 :  -0.1707 0.0244 0.0000  plane waves:     493
 k-point  56 :  -0.1463 0.0244 0.0000  plane waves:     497
 k-point  57 :  -0.1220 0.0244 0.0000  plane waves:     501
 k-point  58 :  -0.0976 0.0244 0.0000  plane waves:     503
 k-point  59 :  -0.0732 0.0244 0.0000  plane waves:     505
 k-point  60 :  -0.0488 0.0244 0.0000  plane waves:     513
[...]
 k-point *** :  -0.3171 0.4634 0.1951  plane waves:     480
 k-point *** :  -0.2927 0.4634 0.1951  plane waves:     480
 k-point *** :  -0.2683 0.4634 0.1951  plane waves:     482
 k-point *** :  -0.3171 0.4878 0.1951  plane waves:     482
 k-point *** :  -0.2927 0.4878 0.1951  plane waves:     478
 k-point *** :  -0.3415 0.4390 0.2195  plane waves:     482
 k-point *** :  -0.3171 0.4390 0.2195  plane waves:     482
 k-point *** :  -0.2927 0.4390 0.2195  plane waves:     480
 k-point *** :  -0.3171 0.4634 0.2195  plane waves:     480
 k-point *** :  -0.2927 0.4634 0.2195  plane waves:     482
 k-point *** :  -0.2683 0.4634 0.2195  plane waves:     485
 k-point *** :  -0.2439 0.4634 0.2195  plane waves:     482
 k-point *** :  -0.2927 0.4878 0.2195  plane waves:     482
 k-point *** :  -0.2683 0.4878 0.2195  plane waves:     488
 k-point *** :  -0.2683 0.4878 0.2439  plane waves:     488

 maximum and minimum number of plane-waves per node :        59       42

 maximum number of plane-waves:       531
 maximum index in each direction:
   IXMAX=    5   IYMAX=    5   IZMAX=    5
   IXMIN=   -5   IYMIN=   -5   IZMIN=   -5

 parallel 3D FFT for wavefunctions:
    minimum data exchange during FFTs selected (reduces bandwidth)
 parallel 3D FFT for charge:
    minimum data exchange during FFTs selected (reduces bandwidth)

 Broyden mixing: mesh for mixing (old mesh)
   NGX = 11   NGY = 11   NGZ = 11
  (NGX  = 48   NGY  = 48   NGZ  = 48)
  gives a total of   1331 points

 initial charge density was supplied:
 charge density of overlapping atoms calculated
 number of electron       8.0000000 magnetization
 keeping initial charge density in first step

 Maximum index for augmentation-charges         7382 (set IRDMAX)

 First call to EWALD:  gamma=   0.839
 Maximum number of real-space cells 3x 3x 3
 Maximum number of reciprocal cells 3x 3x 3

--------------------------------------- Iteration      1(   1)  ---------------------------------------

 BZINTS: Fermi energy:   20.829419;    8.000000 electrons
         Band energy: 0.266203E+02;  BLOECHL correction:   -0.138527

 eigenvalue-minimisations  : 28840
 total energy-change (2. order) : 0.1309701E+01  (-0.6481520E+03)
 number of electron       8.0000000 magnetization
 augmentation part        8.0000000 magnetization

 Free energy of the ion-electron system (eV)
  alpha Z        PSCENC =        34.86659431
  Ewald energy   TEWEN  =      -370.14612000
  -Hartree energ DENC   =       -13.79998810
  -exchange      EXHF   =         0.00000000
  -V(xc)+E(xc)   XCENC  =        33.68771655
  PAW double counting   =       211.93111631     -216.15880412
  entropy T*S    EENTRO =         0.00000000
  eigenvalues    EBANDS =        26.62033943
  atomic energy  EATOM  =       294.30884690
  Solvation  Ediel_sol  =         0.00000000
  free energy    TOTEN  =         1.30970129 eV

  energy without entropy =        1.30970129  energy(sigma->0) =        1.30970129

[...]

 eigenvalue-minimisations  : 44376
 total energy-change (2. order) :-0.2287599E+02  (-0.2264484E+02)
 number of electron       8.0000000 magnetization
 augmentation part        8.0000000 magnetization

[...]

 Broyden mixing:
  rms(total) = 0.65036E+00    rms(broyden)= 0.11981E+04
  rms(prec ) = 0.12199E+02
  weight for this iteration     100.00
  WARNING: grid for Broyden might be to small

[...]

 eigenvalues of (default mixing * dielectric matrix)
  average eigenvalue GAMMA=   0.6202
  0.6202

[...]

 eigenvalue-minimisations  : 36864
 total energy-change (2. order) : 0.6581067E-01  (-0.2500390E-01)
 number of electron       8.0000000 magnetization
 augmentation part        0.2167483 magnetization

[...]

 Broyden mixing:
  rms(total) = 0.66828E-04    rms(broyden)= 0.20501E-02
  rms(prec ) = 0.10349E-03
  weight for this iteration     100.00
  WARNING: grid for Broyden might be to small

 eigenvalues of (default mixing * dielectric matrix)
  average eigenvalue GAMMA=   1.1614
  2.6843  2.2134  1.0461  0.9569  0.9569  0.6859  0.6230  0.6432  0.6432

[...]

--------------------------------------- Iteration      1(  15)  ---------------------------------------

[...]

 eigenvalue-minimisations  : 14168
 total energy-change (2. order) :-0.4747130E-07  (-0.2060011E-09)
 number of electron       8.0000000 magnetization
 augmentation part        0.2168482 magnetization

 Free energy of the ion-electron system (eV)
  alpha Z        PSCENC =        34.86659431
  Ewald energy   TEWEN  =      -370.14612000
  -Hartree energ DENC   =       -23.93266305
  -exchange      EXHF   =         0.00000000
  -V(xc)+E(xc)   XCENC  =        35.82844853
  PAW double counting   =      1138.82457646    -1143.26875298
  entropy T*S    EENTRO =         0.00000000
  eigenvalues    EBANDS =        14.42288528
  atomic energy  EATOM  =       294.30884690
  Solvation  Ediel_sol  =         0.00000000
  free energy    TOTEN  =       -19.09618454 eV

  energy without entropy =      -19.09618454  energy(sigma->0) =      -19.09618454

 average (electrostatic) potential at core
  the test charge radii are     0.6991
  (the norm of the test charge is              1.0000)
       1 -44.7196       2 -44.7196

 E-fermi :  17.3613     XC(G=0): -15.3006     alpha+bet :-21.2695

 k-point     1 :       0.0000    0.0000    0.0000
  band No.  band energies     occupation
      1     -12.8346      2.00000
      2      12.5923      2.00000
      3      12.5923      2.00000
      4      12.5923      2.00000
      5      18.9414      0.00000
      6      18.9414      0.00000
      7      18.9414      0.00000
      8      31.1156      0.00000

[...]

 k-point  1771 :      -0.2683    0.4878    0.2439
  band No.  band energies     occupation
      1      -1.5944      2.00000
      2      -1.1118      2.00000
      3       1.8979      2.00000
      4       2.3273      2.00000
      5      24.5406      0.00000
      6      24.8592      0.00000
      7      28.0298      0.00000
      8      28.2900      0.00000

 soft charge-density along one line, spin component           1
         0         1         2         3         4         5         6         7         8         9
 total charge-density along one line

------------------------ aborting loop because EDIFF is reached ----------------------------------------

 total charge

# of ion       s       p       d       tot
    1        0.886   1.954   0.000   2.840
    2        0.886   1.954   0.000   2.840
tot          1.772   3.909   0.000   5.681

  FORCE on cell =-STRESS in cart. coord.  units (eV):
  Direction    XX          YY          ZZ          XY          YZ          ZX
  Alpha Z    34.86659    34.86659    34.86659
  Ewald    -123.38210  -123.38210  -123.38210    -0.00000    -0.00000     0.00000
  Hartree     7.97759     7.97759     7.97759     0.00000     0.00000     0.00000
  E(xc)     -31.95056   -32.31226   -31.88460     0.14153    -0.01980     0.07177
  Local      -8.85130    -8.85130    -8.85130    -0.00000    -0.00000    -0.00000
  n-local    -7.60688    -6.31367    -8.97622    -0.21193    -0.20217     0.11487
  augment    -1.13048    -1.13048    -1.13048     0.00000     0.00000     0.00000
  Kinetic   139.87853   130.85469   139.86086     5.11280    -1.15608     2.06165
  Fock        0.00000     0.00000     0.00000     0.00000     0.00000     0.00000
  Total       6.66360     6.66360     6.66360    -0.00000     0.00000    -0.00000
  in kB    1132.86662  1132.86662  1132.86662    -0.00000     0.00000    -0.00000

 VOLUME and BASIS-vectors are now :
  energy-cutoff  :      800.00
  volume of cell :        9.42
      direct lattice vectors                 reciprocal lattice vectors
     0.000000000  1.676500000  1.676500000    -0.298240382  0.298240382  0.298240382
     1.676500000  0.000000000  1.676500000     0.298240382 -0.298240382  0.298240382
     1.676500000  1.676500000  0.000000000     0.298240382  0.298240382 -0.298240382

  length of vectors
     2.370929037  2.370929037  2.370929037     0.516567494  0.516567494  0.516567494

 FORCES acting on ions
    electron-ion (+dipol)            ewald-force                    non-local-force                 convergence-correction
   0.280E-08 0.280E-08 0.138E-08   -.135E-14 -.140E-14 0.645E-14   -.167E-15 -.971E-16 -.160E-15   0.389E-09 0.389E-09 0.389E-09
   -.280E-08 -.280E-08 -.138E-08   0.190E-14 0.870E-15 -.780E-14   0.208E-15 0.694E-16 0.139E-15   -.389E-09 -.389E-09 -.389E-09
   0.209E-12 0.390E-12 0.130E-12   0.556E-15 -.531E-15 -.136E-14   0.416E-16 -.278E-16 -.208E-16   -.230E-14 -.137E-14 -.673E-15

 POSITION                                       TOTAL-FORCE (eV/Angst)
      2.93388      2.93388      2.93388         0.000000      0.000000      0.000000
      0.41913      0.41913      0.41913        -0.000000     -0.000000     -0.000000
    total drift:                                0.000000      0.000000      0.000000

  FREE ENERGIE OF THE ION-ELECTRON SYSTEM (eV)
  free  energy   TOTEN  =       -19.09618454 eV

  energy  without entropy=      -19.09618454  energy(sigma->0) =      -19.09618454

 total charge

# of ion       s       p       d       tot
    1        0.886   1.954   0.000   2.840
    2        0.886   1.954   0.000   2.840
tot          1.772   3.909   0.000   5.681

 BZINTS: Fermi energy:   17.361345;    8.000000 electrons
         Band energy: 0.144229E+02;  BLOECHL correction:    0.000000